title                                   
    1.000000000000000     
     9.6711727601798056   -0.0152596989039249   -0.0032499652375025
    -0.0152689058296389    9.7347763679859227    0.0052917782577966
    -0.0021675963322764    0.0035369326809981    6.4679995435015503
   Nb   Ti   W 
    12    12    12
Direct
  0.3345226939370762  0.3354766690736287  0.4972773657353079
  0.1644398286777572  0.8320223549988597  0.7442759902096435
  0.3345300431862381 -0.0046975967158869  0.0009859944894981
  0.5026722135998867  0.5035321123886481  0.2505248348295794
  0.6622539624214857 -0.0029151193239166  0.0025771165843457
  0.1701459140311868  0.1681691234404461  0.7445945478674667
  0.8304654710503667  0.1712596724369955  0.7498027348501887
 -0.0019050111429966  0.0023081466729093 -0.0027148680343480
  0.3305748911890464  0.3382558429183339  0.0007979639503557
  0.8328835833841655  0.8273504072188478  0.2516914950865362
  0.8391969817326334  0.1681046061195000  0.2492135623257037
  0.6706624734056605  0.3331796090534433  0.0075508977226070
  0.8301317080372201  0.5081580405020447  0.7449476895179985
  0.1675898147745202  0.8357744346703806  0.2626946279848142
  0.0068201414235702  0.6543276088690992  0.0031174140115580
  0.1666232927301525  0.1659835908946436  0.2570374718293840
  0.4971465877810946  0.1638640588583531  0.7491731380004854
 -0.0080117858431911  0.0014569554679149  0.5074334140380111
  0.8290674229480738  0.8204407743969020  0.7494547690433241
  0.0038669635294829  0.3444757226795727  0.0002796183902352
  0.3309781199462229  0.6676623601138036 -0.0009545313711285
  0.5076674386797511  0.5059355613325204  0.7468658313022947
  0.6701974711563582  0.3284212384606597  0.4861706201207039
  0.6628232580052996 -0.0014854564154649  0.4953106964326083
  0.3384752701256055 -0.0027986227132358  0.5007234636671322
  0.1675632028170364  0.5012276151435863  0.2568722271560793
  0.6649867667070674  0.6689573638791428  0.4956221168694580
  0.3335594406576884  0.6677916623317585  0.5012959181469010
  0.4936420590162575  0.1632780551137973  0.2490400211119211
  0.6645559817558270  0.6670304664420594  0.0029941561946377
  0.1663428541382844  0.5023092503159609  0.7431635751445670
 -0.0004986531916642  0.3377340381736780  0.4982332691317252
  0.0018455979794052  0.6635679289204001  0.4990090995002620
  0.5012553429526698  0.8300382652427104  0.7481323504705304
  0.4977151800399008  0.8306774149782528  0.2524593277244572
  0.8352134783608612  0.5031258440596516  0.2543460799651556
 
  0.00000000E+00  0.00000000E+00  0.00000000E+00
  0.00000000E+00  0.00000000E+00  0.00000000E+00
  0.00000000E+00  0.00000000E+00  0.00000000E+00
  0.00000000E+00  0.00000000E+00  0.00000000E+00
  0.00000000E+00  0.00000000E+00  0.00000000E+00
  0.00000000E+00  0.00000000E+00  0.00000000E+00
  0.00000000E+00  0.00000000E+00  0.00000000E+00
  0.00000000E+00  0.00000000E+00  0.00000000E+00
  0.00000000E+00  0.00000000E+00  0.00000000E+00
  0.00000000E+00  0.00000000E+00  0.00000000E+00
  0.00000000E+00  0.00000000E+00  0.00000000E+00
  0.00000000E+00  0.00000000E+00  0.00000000E+00
  0.00000000E+00  0.00000000E+00  0.00000000E+00
  0.00000000E+00  0.00000000E+00  0.00000000E+00
  0.00000000E+00  0.00000000E+00  0.00000000E+00
  0.00000000E+00  0.00000000E+00  0.00000000E+00
  0.00000000E+00  0.00000000E+00  0.00000000E+00
  0.00000000E+00  0.00000000E+00  0.00000000E+00
  0.00000000E+00  0.00000000E+00  0.00000000E+00
  0.00000000E+00  0.00000000E+00  0.00000000E+00
  0.00000000E+00  0.00000000E+00  0.00000000E+00
  0.00000000E+00  0.00000000E+00  0.00000000E+00
  0.00000000E+00  0.00000000E+00  0.00000000E+00
  0.00000000E+00  0.00000000E+00  0.00000000E+00
  0.00000000E+00  0.00000000E+00  0.00000000E+00
  0.00000000E+00  0.00000000E+00  0.00000000E+00
  0.00000000E+00  0.00000000E+00  0.00000000E+00
  0.00000000E+00  0.00000000E+00  0.00000000E+00
  0.00000000E+00  0.00000000E+00  0.00000000E+00
  0.00000000E+00  0.00000000E+00  0.00000000E+00
  0.00000000E+00  0.00000000E+00  0.00000000E+00
  0.00000000E+00  0.00000000E+00  0.00000000E+00
  0.00000000E+00  0.00000000E+00  0.00000000E+00
  0.00000000E+00  0.00000000E+00  0.00000000E+00
  0.00000000E+00  0.00000000E+00  0.00000000E+00
  0.00000000E+00  0.00000000E+00  0.00000000E+00
