title                                   
    1.000000000000000     
     9.6527917800399763   -0.0142605895160892   -0.0343553602540226
    -0.0144914334243600    9.5535211385266141    0.0520890624690809
    -0.0233248095746924    0.0346704398548662    6.3477700630708975
   Cr   Mo   W    Zr
     9     9     9     9
Direct
  0.4977839898320777  0.8344891305306679  0.7523784072099899
  0.4876002635580017  0.5229694069070016  0.7501542638759950
  0.6487250436997650 -0.0016736706033331  0.5022887129990835
  0.3406266819559136  0.6764385064937846 -0.0168945101452915
  0.3382741493405819 -0.0048739495762117  0.0015779904307313
  0.3397683406491216  0.6764141422359737  0.5191876703290501
  0.8104871591639333  0.8273662029667979  0.2403659950716820
  0.1761492912456357  0.1710827460336322  0.2488873480925674
 -0.0032435336143060  0.6580255556066400 -0.0099484804142938
  0.6618677087003368  0.6729862619688428  0.5005962965730084
  0.1755212014340196  0.1666771987289592  0.7539890311411811
  0.0017978100158605  0.3341701069393472  0.5057050534624349
  0.1918642669963820  0.8267421519122529  0.2395965729364831
  0.3304154251128670  0.3249190732880515  0.5079927936726936
  0.4930925486729724  0.1553201485144388  0.7516430198416880
  0.1893264688308594  0.8236720315327962  0.7565924388928627
  0.1711124590871161  0.4983193427216004  0.7526638500999298
  0.3294104205015675  0.3236234053554902 -0.0065167716881445
  0.8397299644101925  0.5084296829722942  0.7542257489215294
  0.4909952420678365  0.1545289410074599  0.2511402196374094
  0.6561760840470718 -0.0038517563108821  0.0007549139153634
  0.4990771915993105  0.8349792061535829  0.2530724314044119
  0.8393913894439818  0.5065268694975312  0.2414602952454663
  0.6604646362381368  0.6719824503443023 -0.0044127682755863
  0.3373468230968225 -0.0034572006945908  0.5052461574208240
  0.0018856476128573  0.3295538634713853 -0.0026411972556714
  0.8346240201572345  0.1664347324517954  0.7563854547759049
  0.0044568883718155  0.6741236699178109  0.4886877663987131
  0.6596974088173130  0.3387987804534760  0.5117485790222757
  0.4873355889450920  0.5116927942027805  0.2525034161602144
  0.8274795142048527  0.1593430229776490  0.2614539905467474
  0.0122710275817503 -0.0103219859794769  0.0082228989444547
  0.6591614124226739  0.3387397643693432 -0.0079957519306940
  0.0157831476043836 -0.0017517957562348  0.4942606111032781
  0.1717951202489014  0.5012138904943889  0.2414641564768682
  0.8217491979470668  0.8363672788706533  0.7441633951068400
 
  0.00000000E+00  0.00000000E+00  0.00000000E+00
  0.00000000E+00  0.00000000E+00  0.00000000E+00
  0.00000000E+00  0.00000000E+00  0.00000000E+00
  0.00000000E+00  0.00000000E+00  0.00000000E+00
  0.00000000E+00  0.00000000E+00  0.00000000E+00
  0.00000000E+00  0.00000000E+00  0.00000000E+00
  0.00000000E+00  0.00000000E+00  0.00000000E+00
  0.00000000E+00  0.00000000E+00  0.00000000E+00
  0.00000000E+00  0.00000000E+00  0.00000000E+00
  0.00000000E+00  0.00000000E+00  0.00000000E+00
  0.00000000E+00  0.00000000E+00  0.00000000E+00
  0.00000000E+00  0.00000000E+00  0.00000000E+00
  0.00000000E+00  0.00000000E+00  0.00000000E+00
  0.00000000E+00  0.00000000E+00  0.00000000E+00
  0.00000000E+00  0.00000000E+00  0.00000000E+00
  0.00000000E+00  0.00000000E+00  0.00000000E+00
  0.00000000E+00  0.00000000E+00  0.00000000E+00
  0.00000000E+00  0.00000000E+00  0.00000000E+00
  0.00000000E+00  0.00000000E+00  0.00000000E+00
  0.00000000E+00  0.00000000E+00  0.00000000E+00
  0.00000000E+00  0.00000000E+00  0.00000000E+00
  0.00000000E+00  0.00000000E+00  0.00000000E+00
  0.00000000E+00  0.00000000E+00  0.00000000E+00
  0.00000000E+00  0.00000000E+00  0.00000000E+00
  0.00000000E+00  0.00000000E+00  0.00000000E+00
  0.00000000E+00  0.00000000E+00  0.00000000E+00
  0.00000000E+00  0.00000000E+00  0.00000000E+00
  0.00000000E+00  0.00000000E+00  0.00000000E+00
  0.00000000E+00  0.00000000E+00  0.00000000E+00
  0.00000000E+00  0.00000000E+00  0.00000000E+00
  0.00000000E+00  0.00000000E+00  0.00000000E+00
  0.00000000E+00  0.00000000E+00  0.00000000E+00
  0.00000000E+00  0.00000000E+00  0.00000000E+00
  0.00000000E+00  0.00000000E+00  0.00000000E+00
  0.00000000E+00  0.00000000E+00  0.00000000E+00
  0.00000000E+00  0.00000000E+00  0.00000000E+00
