title                                   
    1.000000000000000     
    10.0241473956482494    0.0638960214496721    0.0024896756181512
     0.0639065301022158   10.0454855466563764   -0.0043877339233142
     0.0016412434615073   -0.0029180510649050    6.7400423223996517
   Hf   Mo   Ti   W    Zr
    15     3     4    11     3
Direct
 -0.0022948507205888  0.6596129521537181  0.4951293433680031
  0.4949163739916699  0.8167939599349128  0.7472447425968249
  0.0052454969013097  0.0005843940202266  0.5189376514726644
  0.1853192451946540  0.5096423446173959  0.7528314395854370
  0.3261298405290992  0.3237315141780313  0.4873260794723732
  0.1662658516739919  0.8380997165521440  0.2396803207723288
  0.3285200273964374  0.0105601216161727  0.5110426087611071
  0.5062549435152255  0.5003670265569495  0.2511334962623031
  0.0047803348699570  0.3383437058931920  0.5072015337506993
 -0.0024344628166746  0.3473354349597676 -0.0162115672102162
  0.4902590567248067  0.8151181989260631  0.2592217258606973
  0.1600796898403224  0.1525419661435243  0.2182989153550461
  0.8294621960364287  0.1764707142540814  0.2441892069216897
  0.6604056362541029 -0.0043317233484563  0.0256572248202015
  0.5051121348655793  0.5026014342587994  0.7474880681069258
  0.3206060836960201  0.6677609882860701  0.4976670637007699
  0.6688597190223708  0.3356607281344231  0.4982481443867092
  0.0021964118613571 -0.0053745201797484 -0.0136824519539548
  0.8159431288963256  0.4901865801677666  0.2571710915384514
  0.6904972682403140  0.6648277231508302  0.0117329902019468
  0.8214410792764231  0.1782870151041870  0.7540288537677452
  0.3159258590630649  0.6688152569104967  0.0032138248611383
  0.4961797190661649  0.1804364230910703  0.2330916980550946
  0.3294854129761784  0.3347809538185408  0.0075232176615927
  0.6871064038712681  0.6643967669167237  0.4972128450693035
  0.3335737630085370 -0.0017122557592091 -0.0110027295591480
  0.8221881222474664  0.5011684733280543  0.7451272526329991
  0.1681388210772685  0.8310390341925733  0.7634149538610490
  0.0019488702214356  0.6615970346800172  0.0082204445343058
  0.8405722163716894  0.8203593756968582  0.2437404869301300
  0.1722521179503834  0.5060113885304071  0.2352162771254722
  0.6712708355551507  0.3397404386761745 -0.0005748496641596
  0.1726989584658742  0.1646376528589414  0.7737757004131562
  0.5092402612696370  0.1805483903391897  0.7567984013507869
  0.8375585478888522  0.8324503442299170  0.7669006542130994
  0.6642948857178963 -0.0030895528898055  0.4830053409774274
 
  0.00000000E+00  0.00000000E+00  0.00000000E+00
  0.00000000E+00  0.00000000E+00  0.00000000E+00
  0.00000000E+00  0.00000000E+00  0.00000000E+00
  0.00000000E+00  0.00000000E+00  0.00000000E+00
  0.00000000E+00  0.00000000E+00  0.00000000E+00
  0.00000000E+00  0.00000000E+00  0.00000000E+00
  0.00000000E+00  0.00000000E+00  0.00000000E+00
  0.00000000E+00  0.00000000E+00  0.00000000E+00
  0.00000000E+00  0.00000000E+00  0.00000000E+00
  0.00000000E+00  0.00000000E+00  0.00000000E+00
  0.00000000E+00  0.00000000E+00  0.00000000E+00
  0.00000000E+00  0.00000000E+00  0.00000000E+00
  0.00000000E+00  0.00000000E+00  0.00000000E+00
  0.00000000E+00  0.00000000E+00  0.00000000E+00
  0.00000000E+00  0.00000000E+00  0.00000000E+00
  0.00000000E+00  0.00000000E+00  0.00000000E+00
  0.00000000E+00  0.00000000E+00  0.00000000E+00
  0.00000000E+00  0.00000000E+00  0.00000000E+00
  0.00000000E+00  0.00000000E+00  0.00000000E+00
  0.00000000E+00  0.00000000E+00  0.00000000E+00
  0.00000000E+00  0.00000000E+00  0.00000000E+00
  0.00000000E+00  0.00000000E+00  0.00000000E+00
  0.00000000E+00  0.00000000E+00  0.00000000E+00
  0.00000000E+00  0.00000000E+00  0.00000000E+00
  0.00000000E+00  0.00000000E+00  0.00000000E+00
  0.00000000E+00  0.00000000E+00  0.00000000E+00
  0.00000000E+00  0.00000000E+00  0.00000000E+00
  0.00000000E+00  0.00000000E+00  0.00000000E+00
  0.00000000E+00  0.00000000E+00  0.00000000E+00
  0.00000000E+00  0.00000000E+00  0.00000000E+00
  0.00000000E+00  0.00000000E+00  0.00000000E+00
  0.00000000E+00  0.00000000E+00  0.00000000E+00
  0.00000000E+00  0.00000000E+00  0.00000000E+00
  0.00000000E+00  0.00000000E+00  0.00000000E+00
  0.00000000E+00  0.00000000E+00  0.00000000E+00
  0.00000000E+00  0.00000000E+00  0.00000000E+00
