title                                   
    1.000000000000000     
     9.6054978280940873   -0.0309272850761764   -0.0924929685945133
    -0.0319997133499755    9.3495371995356162    0.0496941084439001
    -0.0639474531290592    0.0318736616162917    6.4784916139972610
   Cr   Ta   Ti   W    Zr
    12     2    15     1     6
Direct
  0.6772934920363769  0.0158543542991943  0.5098177707592376
  0.8382983789474659  0.1606533681409957  0.7152299548841030
  0.4667575744590871  0.5053231122435816  0.7555205365949170
 -0.0053118113168018  0.0071898943662414  0.5076158748652266
  0.6440111208649895  0.6837954031365150 -0.0137418241079615
  0.3472516151255258  0.3494424290750676  0.5220402640480096
  0.8708545978181743  0.4620025627249005  0.6938448109675219
 -0.0093422706940755  0.0185984458294769 -0.0136812743486396
  0.5095751242269070  0.8356913094103627  0.7887758177077343
  0.6791814306688372  0.3338662110582801  0.5052279109979338
  0.3376930370016751  0.6617723934333036 -0.0073540275227408
 -0.0071205154166867  0.3261582748017111  0.5094102466861998
 -0.0375017311494983  0.6407049748202372 -0.0326950140763063
  0.3401679511207290 -0.0027171677525229  0.0021302906364307
  0.3420203235766125  0.6737358584138414  0.5286850184812539
  0.4972665769373626  0.5057887189504658  0.2599846536474976
  0.8338956177917470  0.1677650197843573  0.2538118471366158
  0.1546968465409541  0.8300242626486587  0.2259919878990940
  0.5298789174968906  0.1735786320591985  0.2714510307478904
  0.1424182964309113  0.1539725443196787  0.2636473234382259
  0.5204904461000435  0.1753201724074978  0.7079934526602243
  0.8280909754786683  0.4871290471408275  0.2762968379003334
  0.1527492446806818  0.8325551548356935  0.7823642568466180
  0.8361780296712749  0.8663737860010654  0.7564666601681175
  0.1502990581549845  0.1584703064331887  0.7272521776803536
  0.5074249573625386  0.8178841320851750  0.2355230087819016
  0.0006541714557678  0.6706837844152590  0.5198618371005443
 -0.0088667815735251  0.3216038260328337 -0.0196648114506439
  0.1712831066013251  0.4959015141939920  0.7505524391221635
  0.6616389713314906  0.0129587782203116 -0.0151900092366394
  0.6691797218164987  0.6504922145737451  0.5691989224138716
  0.6795383956786155  0.3678803704303567 -0.0458613668483134
  0.3393778369853478  0.3141321671169365 -0.0043005706227814
  0.3407103412357941 -0.0146593534241473  0.5032686830936738
  0.8293056870930055  0.8446057306436029  0.2513085803516510
  0.1699612654603063  0.4954677671301148  0.2592167025966799
 
  0.00000000E+00  0.00000000E+00  0.00000000E+00
  0.00000000E+00  0.00000000E+00  0.00000000E+00
  0.00000000E+00  0.00000000E+00  0.00000000E+00
  0.00000000E+00  0.00000000E+00  0.00000000E+00
  0.00000000E+00  0.00000000E+00  0.00000000E+00
  0.00000000E+00  0.00000000E+00  0.00000000E+00
  0.00000000E+00  0.00000000E+00  0.00000000E+00
  0.00000000E+00  0.00000000E+00  0.00000000E+00
  0.00000000E+00  0.00000000E+00  0.00000000E+00
  0.00000000E+00  0.00000000E+00  0.00000000E+00
  0.00000000E+00  0.00000000E+00  0.00000000E+00
  0.00000000E+00  0.00000000E+00  0.00000000E+00
  0.00000000E+00  0.00000000E+00  0.00000000E+00
  0.00000000E+00  0.00000000E+00  0.00000000E+00
  0.00000000E+00  0.00000000E+00  0.00000000E+00
  0.00000000E+00  0.00000000E+00  0.00000000E+00
  0.00000000E+00  0.00000000E+00  0.00000000E+00
  0.00000000E+00  0.00000000E+00  0.00000000E+00
  0.00000000E+00  0.00000000E+00  0.00000000E+00
  0.00000000E+00  0.00000000E+00  0.00000000E+00
  0.00000000E+00  0.00000000E+00  0.00000000E+00
  0.00000000E+00  0.00000000E+00  0.00000000E+00
  0.00000000E+00  0.00000000E+00  0.00000000E+00
  0.00000000E+00  0.00000000E+00  0.00000000E+00
  0.00000000E+00  0.00000000E+00  0.00000000E+00
  0.00000000E+00  0.00000000E+00  0.00000000E+00
  0.00000000E+00  0.00000000E+00  0.00000000E+00
  0.00000000E+00  0.00000000E+00  0.00000000E+00
  0.00000000E+00  0.00000000E+00  0.00000000E+00
  0.00000000E+00  0.00000000E+00  0.00000000E+00
  0.00000000E+00  0.00000000E+00  0.00000000E+00
  0.00000000E+00  0.00000000E+00  0.00000000E+00
  0.00000000E+00  0.00000000E+00  0.00000000E+00
  0.00000000E+00  0.00000000E+00  0.00000000E+00
  0.00000000E+00  0.00000000E+00  0.00000000E+00
  0.00000000E+00  0.00000000E+00  0.00000000E+00
