title                                   
    1.000000000000000     
     9.6962450087587300    0.0464715368328838    0.0350365568520533
     0.0464547620997090    9.7400233537691179    0.0719904745850196
     0.0232832867414242    0.0479786867720713    6.4934014003058609
   Mo   Nb   Ti   V    Zr
    11    15     3     4     3
Direct
  0.0013895506799926  0.0058589137859818  0.4989623055286982
  0.6684385513007437  0.6610018833540641  0.5086657377249981
  0.4945878082845958  0.8350957098853460  0.7448777057721173
  0.3323965581204478  0.0070191079422408  0.0008843619737367
  0.3298949911550744  0.0054388553438942  0.5038227355929110
  0.6598335650909521  0.3321533201133647 -0.0021314504364742
  0.6607290133349397  0.3332136757647944  0.5045584996597129
  0.8299173439727404  0.5020615192094138  0.7410601426032143
  0.3373696536860151  0.6604789211441731  0.5030571713601302
  0.4996081930970513  0.1646377063703366  0.7569366963264086
  0.1691138567230591  0.1580574799723393  0.7493698067327211
  0.1786302308484560  0.5056392338220798  0.7414130546483576
  0.0043312237949651  0.3337127655824014  0.5018277837911809
  0.1756754441339027  0.5035047840079387  0.2561976080229331
  0.6565523721536709  0.0056810521066765  0.5090770416035801
  0.0001045052834571  0.0073913912382317 -0.0000791539921305
  0.8343083076964088  0.8436756437485210  0.7397704005502065
 -0.0003604908841707  0.6676666014994848  0.4987078957376609
 -0.0001667262443478  0.6703677663892047 -0.0046870773834559
  0.5028728429650744  0.4884153478484207  0.2581901669242412
  0.8295721183149646  0.5006134115705976  0.2563074237127774
  0.3390856727103727  0.6597070966373242 -0.0089922700701837
  0.1700389044852292  0.8359370300215453  0.7449461297870171
  0.8226167230895288  0.1654096376620506  0.2530815246791567
  0.1670319884461060  0.8373224760535825  0.2513331176835251
  0.8253604221398569  0.1721364368008353  0.7509900948267386
  0.8324020605324386  0.8423866077613543  0.2564705440261570
  0.3360044977357060  0.3182354957519059  0.5103223830415434
  0.3372149740435736  0.3226972968798269 -0.0026919718973356
  0.6555670808382906  0.0123165389400993 -0.0119689104169803
  0.1717736786630850  0.1532346983331001  0.2598234845638298
  0.5071567614730237  0.4925531876957530  0.7377547043334909
  0.4960348722921151  0.1589500491126248  0.2490915804377263
  0.6691885687954815  0.6671428821394508 -0.0108156900161617
  0.0077166098431015  0.3338966987710878  0.0029506207313087
  0.4980082714040980  0.8363887767399547  0.2509158018366415
 
  0.00000000E+00  0.00000000E+00  0.00000000E+00
  0.00000000E+00  0.00000000E+00  0.00000000E+00
  0.00000000E+00  0.00000000E+00  0.00000000E+00
  0.00000000E+00  0.00000000E+00  0.00000000E+00
  0.00000000E+00  0.00000000E+00  0.00000000E+00
  0.00000000E+00  0.00000000E+00  0.00000000E+00
  0.00000000E+00  0.00000000E+00  0.00000000E+00
  0.00000000E+00  0.00000000E+00  0.00000000E+00
  0.00000000E+00  0.00000000E+00  0.00000000E+00
  0.00000000E+00  0.00000000E+00  0.00000000E+00
  0.00000000E+00  0.00000000E+00  0.00000000E+00
  0.00000000E+00  0.00000000E+00  0.00000000E+00
  0.00000000E+00  0.00000000E+00  0.00000000E+00
  0.00000000E+00  0.00000000E+00  0.00000000E+00
  0.00000000E+00  0.00000000E+00  0.00000000E+00
  0.00000000E+00  0.00000000E+00  0.00000000E+00
  0.00000000E+00  0.00000000E+00  0.00000000E+00
  0.00000000E+00  0.00000000E+00  0.00000000E+00
  0.00000000E+00  0.00000000E+00  0.00000000E+00
  0.00000000E+00  0.00000000E+00  0.00000000E+00
  0.00000000E+00  0.00000000E+00  0.00000000E+00
  0.00000000E+00  0.00000000E+00  0.00000000E+00
  0.00000000E+00  0.00000000E+00  0.00000000E+00
  0.00000000E+00  0.00000000E+00  0.00000000E+00
  0.00000000E+00  0.00000000E+00  0.00000000E+00
  0.00000000E+00  0.00000000E+00  0.00000000E+00
  0.00000000E+00  0.00000000E+00  0.00000000E+00
  0.00000000E+00  0.00000000E+00  0.00000000E+00
  0.00000000E+00  0.00000000E+00  0.00000000E+00
  0.00000000E+00  0.00000000E+00  0.00000000E+00
  0.00000000E+00  0.00000000E+00  0.00000000E+00
  0.00000000E+00  0.00000000E+00  0.00000000E+00
  0.00000000E+00  0.00000000E+00  0.00000000E+00
  0.00000000E+00  0.00000000E+00  0.00000000E+00
  0.00000000E+00  0.00000000E+00  0.00000000E+00
  0.00000000E+00  0.00000000E+00  0.00000000E+00
