title                                   
    1.000000000000000     
     9.8417003048009306    0.0121273545697678    0.0059794119160900
     0.0122398259662398    9.7500656684701905    0.0135711090847859
     0.0040681964466512    0.0088887566163734    6.6421197184039356
   Hf   Mo   V    W    Zr
     1     2     6    15    12
Direct
  0.8313511205989992  0.8301142037087245  0.2482304216986768
  0.1677339318690672  0.5036579344653036  0.2587043839864459
  0.3429786627667659 -0.0028082241334990 -0.0022971332151384
  0.1948545238089086  0.1551527548452414  0.7667160958337713
  0.1687974595195936  0.5098082089647382  0.7283082417783370
 -0.0045613574745060  0.3510632325860595  0.5054997243918093
  0.3319702499330304  0.6678068752781164 -0.0211215172466927
  0.4918528410778797  0.8344758719174793  0.2384638182617006
  0.3400713395452804  0.3293968854112898 -0.0174738906741990
  0.8196090747634672  0.1748442910231481  0.7647176839273924
  0.8337544447139027  0.5001536777713320  0.7441143434332549
  0.6594691711693441  0.0002179733206564 -0.0023541049069166
  0.8239494555126953  0.8257638081726175  0.7589626678558240
  0.1815713272646575  0.8233645326237077  0.7412574351876827
 -0.0007542062910863  0.6583073365278364  0.5077620490177592
  0.4953215328623546  0.1635104450544198  0.7706693724278753
  0.4928638022070777  0.8318366342092169  0.7675981636378281
  0.8308306716985028  0.5004402771504481  0.2457280618301655
  0.3304979346252630  0.6647217778280071  0.5095447826441989
  0.6654479301611024  0.6666674382884168 -0.0096953404839309
  0.4969198837041865  0.1632067400861703  0.2390218074359388
  0.4915629630250712  0.5050759313751093  0.7665057733046171
  0.6659567069648469  0.3353792539470105 -0.0051265550708503
  0.3422851260286389 -0.0031544277424537  0.5123162788866759
  0.6565215002135006 -0.0002248477404752  0.5099607211631529
  0.8336810130470617  0.1721436901224756  0.2480546118242367
  0.0006735641855303 -0.0003999013710137 -0.0279527967657504
  0.3243287279251899  0.3321280955500973  0.5138853267528960
  0.0065977474851753  0.0067458247024491  0.5312682607249303
  0.0097096005620284  0.3390958784373800 -0.0201551735642416
  0.6623974757606590  0.3355416182753734  0.5060956508343075
  0.0052214967757638  0.6569652201138424 -0.0072669465175120
  0.6601196672326765  0.6672743573535593  0.5055402696987134
  0.1782562859504367  0.8299352910445750  0.2516916777550703
  0.1792181151281881  0.1667352487296330  0.2409175165492015
  0.4889402156787452  0.5050560921030066  0.2319083176027704
 
  0.00000000E+00  0.00000000E+00  0.00000000E+00
  0.00000000E+00  0.00000000E+00  0.00000000E+00
  0.00000000E+00  0.00000000E+00  0.00000000E+00
  0.00000000E+00  0.00000000E+00  0.00000000E+00
  0.00000000E+00  0.00000000E+00  0.00000000E+00
  0.00000000E+00  0.00000000E+00  0.00000000E+00
  0.00000000E+00  0.00000000E+00  0.00000000E+00
  0.00000000E+00  0.00000000E+00  0.00000000E+00
  0.00000000E+00  0.00000000E+00  0.00000000E+00
  0.00000000E+00  0.00000000E+00  0.00000000E+00
  0.00000000E+00  0.00000000E+00  0.00000000E+00
  0.00000000E+00  0.00000000E+00  0.00000000E+00
  0.00000000E+00  0.00000000E+00  0.00000000E+00
  0.00000000E+00  0.00000000E+00  0.00000000E+00
  0.00000000E+00  0.00000000E+00  0.00000000E+00
  0.00000000E+00  0.00000000E+00  0.00000000E+00
  0.00000000E+00  0.00000000E+00  0.00000000E+00
  0.00000000E+00  0.00000000E+00  0.00000000E+00
  0.00000000E+00  0.00000000E+00  0.00000000E+00
  0.00000000E+00  0.00000000E+00  0.00000000E+00
  0.00000000E+00  0.00000000E+00  0.00000000E+00
  0.00000000E+00  0.00000000E+00  0.00000000E+00
  0.00000000E+00  0.00000000E+00  0.00000000E+00
  0.00000000E+00  0.00000000E+00  0.00000000E+00
  0.00000000E+00  0.00000000E+00  0.00000000E+00
  0.00000000E+00  0.00000000E+00  0.00000000E+00
  0.00000000E+00  0.00000000E+00  0.00000000E+00
  0.00000000E+00  0.00000000E+00  0.00000000E+00
  0.00000000E+00  0.00000000E+00  0.00000000E+00
  0.00000000E+00  0.00000000E+00  0.00000000E+00
  0.00000000E+00  0.00000000E+00  0.00000000E+00
  0.00000000E+00  0.00000000E+00  0.00000000E+00
  0.00000000E+00  0.00000000E+00  0.00000000E+00
  0.00000000E+00  0.00000000E+00  0.00000000E+00
  0.00000000E+00  0.00000000E+00  0.00000000E+00
  0.00000000E+00  0.00000000E+00  0.00000000E+00
