title                                   
    1.000000000000000     
     9.9055067120287443    0.0094256778306622    0.0104412035145448
     0.0094612230800164    9.8403942971421365   -0.1137912671320239
     0.0070006594403866   -0.0758633934082051    6.5910572129879332
   Hf   Mo   Ti   Zr
    10    19     4     3
Direct
  0.3347582187092109  0.0043380813079490  0.4803784098144845
  0.6757850133664391 -0.0016716448252606  0.4955356095265169
  0.8195529202537042  0.4961994717341021  0.7553455959452873
  0.6696991021918076  0.6750978880693691  0.4979810189421321
 -0.0064795222593036  0.6704483052682335  0.0060616076994265
  0.4952272198344468  0.4967742288619973  0.2420204878065966
  0.5007590267849129  0.1812172062298138  0.7746279128836491
  0.1686066467629124  0.5031964856757778  0.2448502880118734
  0.3229276317840352  0.3270330058940035  0.5144414025531929
  0.1658690023985180  0.8337963269159394  0.7413470454840867
 -0.0061299069638219  0.3253761851178198 -0.0050872848902168
  0.8476792097234002  0.1633900584609755  0.2491526637439803
  0.4948636136113171  0.8224557503191646  0.2435318314202912
  0.8421349005469173  0.8354662390532094  0.2555231833636190
  0.6763183340068151  0.3303810409977042  0.4897895897970404
  0.3200096819434075  0.3350735558711299 -0.0147812306271012
  0.8423090545530478  0.1682641053148964  0.7534123400506721
  0.8465451362704083  0.8362174660718059  0.7487864072280984
  0.6701297170736137  0.6710236663624377  0.0204550804429038
  0.1640267903663237  0.1593451464610394  0.7601340575860206
  0.3308153452495701  0.6670161465007883  0.4962631968980260
 -0.0006740755058684  0.0009175237522035  0.4913961765023513
  0.8327549436197040  0.4979984335288907  0.2575087723273531
 -0.0096267546130851  0.6707354321677539  0.4945432207824184
  0.3264487537911533  0.6661542576820644  0.0015514399584565
 -0.0018770761518097 -0.0000921199547706 -0.0045438088369124
  0.3272982882680318  0.0025425914739565  0.0045141236107434
  0.1671792616312820  0.8351872356523533  0.2433788612767230
  0.1686675532999178  0.5068327096484855  0.7532070606130944
  0.6891169731161708  0.3237807765910236  0.0230284891695662
  0.4990609583535354  0.5037873264081117  0.7624065494667774
  0.4925204272272881  0.1796962878760775  0.2273061513244008
  0.1660352615424194  0.1600203465222013  0.2189111335351250
  0.6784307023422373 -0.0005618232282465  0.0091977445290983
  0.0032480388827824  0.3273142837980550  0.5039611163793380
  0.4860096079885579  0.8252480224189455  0.7638637556808855
 
  0.00000000E+00  0.00000000E+00  0.00000000E+00
  0.00000000E+00  0.00000000E+00  0.00000000E+00
  0.00000000E+00  0.00000000E+00  0.00000000E+00
  0.00000000E+00  0.00000000E+00  0.00000000E+00
  0.00000000E+00  0.00000000E+00  0.00000000E+00
  0.00000000E+00  0.00000000E+00  0.00000000E+00
  0.00000000E+00  0.00000000E+00  0.00000000E+00
  0.00000000E+00  0.00000000E+00  0.00000000E+00
  0.00000000E+00  0.00000000E+00  0.00000000E+00
  0.00000000E+00  0.00000000E+00  0.00000000E+00
  0.00000000E+00  0.00000000E+00  0.00000000E+00
  0.00000000E+00  0.00000000E+00  0.00000000E+00
  0.00000000E+00  0.00000000E+00  0.00000000E+00
  0.00000000E+00  0.00000000E+00  0.00000000E+00
  0.00000000E+00  0.00000000E+00  0.00000000E+00
  0.00000000E+00  0.00000000E+00  0.00000000E+00
  0.00000000E+00  0.00000000E+00  0.00000000E+00
  0.00000000E+00  0.00000000E+00  0.00000000E+00
  0.00000000E+00  0.00000000E+00  0.00000000E+00
  0.00000000E+00  0.00000000E+00  0.00000000E+00
  0.00000000E+00  0.00000000E+00  0.00000000E+00
  0.00000000E+00  0.00000000E+00  0.00000000E+00
  0.00000000E+00  0.00000000E+00  0.00000000E+00
  0.00000000E+00  0.00000000E+00  0.00000000E+00
  0.00000000E+00  0.00000000E+00  0.00000000E+00
  0.00000000E+00  0.00000000E+00  0.00000000E+00
  0.00000000E+00  0.00000000E+00  0.00000000E+00
  0.00000000E+00  0.00000000E+00  0.00000000E+00
  0.00000000E+00  0.00000000E+00  0.00000000E+00
  0.00000000E+00  0.00000000E+00  0.00000000E+00
  0.00000000E+00  0.00000000E+00  0.00000000E+00
  0.00000000E+00  0.00000000E+00  0.00000000E+00
  0.00000000E+00  0.00000000E+00  0.00000000E+00
  0.00000000E+00  0.00000000E+00  0.00000000E+00
  0.00000000E+00  0.00000000E+00  0.00000000E+00
  0.00000000E+00  0.00000000E+00  0.00000000E+00
