title                                   
    1.000000000000000     
     9.6116421710459647    0.0325824185209871   -0.0078493462616481
     0.0325114204559296    9.6567319237873939    0.0036991973512906
    -0.0052156556055648    0.0025030825020731    6.4106108941174398
   Hf   Nb   Ta   Ti   V 
     2     6    12     1    15
Direct
  0.1647934548478602  0.1602591985264697  0.2431216301693672
  0.4943086292118556  0.8439255064449871  0.2544788477078684
  0.8360553718242375  0.4932256919259528  0.7455594989837422
  0.3312932347134901  0.6607507962576139  0.0038807721249116
  0.3320209336394467  0.6603547315661027  0.4971777573052538
  0.6689612761952562  0.6559072338593298 -0.0043230176000394
  0.1574679416086877  0.4979040337125190  0.2549827558192619
  0.6704862337281532  0.0046237873728414 -0.0122598697788480
  0.3470428948652988  0.3336690319977491  0.5049185307774045
 -0.0043822760637372  0.6701918966727476  0.0060821681296915
  0.8333873918221756  0.1731927661930012  0.7492139818664217
  0.4997566909333321  0.8374702453935270  0.7440014462075267
  0.1686611516491078  0.8343491522706986  0.7518983531483238
  0.8287945907246437  0.8341398682318703  0.2535648672568572
  0.8329996473210625  0.1755472520644430  0.2500095401352697
 -0.0044306796787756 -0.0096266204520078  0.5049056925752834
  0.1621563372770648  0.1679742253381524  0.7564883462814129
  0.1609770926516466  0.4982381285281351  0.7464647564772423
  0.3499323564445451  0.3347806850056431 -0.0053971401126402
  0.5073498408868500  0.1636792118892325  0.2535171750833801
  0.6719926841005640  0.6517377323539951  0.5036474490680806
  0.6629387410187410  0.3407603467435966  0.4965816654170052
  0.1617951498561395  0.8361845693024446  0.2484010523603311
 -0.0117415871063810  0.3459138795542056  0.0034683956194725
  0.5121703659635585  0.4892138171232178  0.2464331912029561
 -0.0085491200599393  0.3431119959643524  0.4966799355761617
  0.8348953159351657  0.8370642633106947  0.7509534425513472
  0.3319348409646726  0.0038530923714229 -0.0253410026650159
  0.5079199520008254  0.1648900229900446  0.7437934741854526
 -0.0013957531878583 -0.0162763052626839 -0.0024221656133789
  0.5056524234528879  0.4938546096102471  0.7518870825447805
  0.6626525664353961  0.3374702519229635  0.0007879657538054
  0.8323351861391970  0.4894943627591118  0.2524921436402833
 -0.0066726896670726  0.6703470390685626  0.4962569068838836
  0.3370154140954578  0.0107402828631937  0.5275577866050905
  0.6694243954564447  0.0110832165256209  0.5105365843120522
 
  0.00000000E+00  0.00000000E+00  0.00000000E+00
  0.00000000E+00  0.00000000E+00  0.00000000E+00
  0.00000000E+00  0.00000000E+00  0.00000000E+00
  0.00000000E+00  0.00000000E+00  0.00000000E+00
  0.00000000E+00  0.00000000E+00  0.00000000E+00
  0.00000000E+00  0.00000000E+00  0.00000000E+00
  0.00000000E+00  0.00000000E+00  0.00000000E+00
  0.00000000E+00  0.00000000E+00  0.00000000E+00
  0.00000000E+00  0.00000000E+00  0.00000000E+00
  0.00000000E+00  0.00000000E+00  0.00000000E+00
  0.00000000E+00  0.00000000E+00  0.00000000E+00
  0.00000000E+00  0.00000000E+00  0.00000000E+00
  0.00000000E+00  0.00000000E+00  0.00000000E+00
  0.00000000E+00  0.00000000E+00  0.00000000E+00
  0.00000000E+00  0.00000000E+00  0.00000000E+00
  0.00000000E+00  0.00000000E+00  0.00000000E+00
  0.00000000E+00  0.00000000E+00  0.00000000E+00
  0.00000000E+00  0.00000000E+00  0.00000000E+00
  0.00000000E+00  0.00000000E+00  0.00000000E+00
  0.00000000E+00  0.00000000E+00  0.00000000E+00
  0.00000000E+00  0.00000000E+00  0.00000000E+00
  0.00000000E+00  0.00000000E+00  0.00000000E+00
  0.00000000E+00  0.00000000E+00  0.00000000E+00
  0.00000000E+00  0.00000000E+00  0.00000000E+00
  0.00000000E+00  0.00000000E+00  0.00000000E+00
  0.00000000E+00  0.00000000E+00  0.00000000E+00
  0.00000000E+00  0.00000000E+00  0.00000000E+00
  0.00000000E+00  0.00000000E+00  0.00000000E+00
  0.00000000E+00  0.00000000E+00  0.00000000E+00
  0.00000000E+00  0.00000000E+00  0.00000000E+00
  0.00000000E+00  0.00000000E+00  0.00000000E+00
  0.00000000E+00  0.00000000E+00  0.00000000E+00
  0.00000000E+00  0.00000000E+00  0.00000000E+00
  0.00000000E+00  0.00000000E+00  0.00000000E+00
  0.00000000E+00  0.00000000E+00  0.00000000E+00
  0.00000000E+00  0.00000000E+00  0.00000000E+00
