title                                   
    1.000000000000000     
     9.2089058314741443   -0.0181216745850042   -0.0088975668721418
    -0.0181146065288686    9.2114555509636951   -0.0140735910263951
    -0.0058887252128893   -0.0093352328372846    6.1569325548002922
   Cr   Nb   Ta   W 
    19    10     3     4
Direct
  0.3342119701620455  0.3299644433401537  0.4983701058320814
  0.5056315246905786  0.8391862129537930  0.2544639405011490
  0.8334679537168670  0.1682035649463005  0.7472885668742455
  0.5030561350602942  0.1637305981790985  0.2675899769169922
 -0.0008696277316730  0.3346239748984389 -0.0091051389300616
  0.1604891359847345  0.4963559377395746  0.7441721661567789
  0.6656991714422089  0.3268859349012257  0.5084878999450217
  0.6671173873749202  0.6653425395734756 -0.0047151740189346
 -0.0029223173926303  0.0075680358640157  0.4974577338475670
  0.5053876428365222  0.1657498978984656  0.7348199379476538
  0.6619420227955041  0.0035670637191504  0.0003437975938912
 -0.0005882243213709  0.6557323420561142  0.5057937035506355
 -0.0013433229674197  0.3358956436518487  0.5093607060053938
  0.3426226747838256  0.0090234107695143  0.4914490543885894
  0.6653214708674301  0.6651327202810695  0.5019037180200266
  0.8370698451046584  0.4963207400561113  0.7472422847965596
  0.3335154356375999  0.6620934265480426  0.5007921449013918
  0.1645061968096505  0.1701501729494445  0.2557253905721303
  0.6591836648558829  0.0081697846817236  0.4999663542645300
  0.8331014211859790  0.1667763007006051  0.2612703586979384
  0.8239526134822068  0.8330800240493582  0.2517689472265872
  0.3355523983437750  0.6664084465560677  0.0028251595136778
  0.8286627485562185  0.8338101678527500  0.7440506452404385
  0.5054898009990655  0.8355447889084003  0.7372828987693006
  0.1652885589462795  0.8342138611101270  0.2612904331961556
  0.3326297396682945  0.3294794599293716  0.0007908761055590
  0.6691782392723351  0.3256154010012264 -0.0101408467800417
  0.8339307952526207  0.4980058206384192  0.2607346582119243
  0.5032844479147442  0.5016558306302600  0.2599439014059927
  0.1628106388088953  0.1712550247513228  0.7327328572460402
  0.1654415170689216  0.8336801615563719  0.7380396393237124
  0.3432847548722653  0.0083586437250933  0.0101250821156271
  0.5043173681873501  0.4998638357343821  0.7401489976289510
 -0.0016015091873715  0.6567798488567804 -0.0070888169565289
 -0.0016500848993684  0.0077357589726448  0.0000304030882365
  0.1628278118181597  0.4940401800192569  0.2647876368007873
 
  0.00000000E+00  0.00000000E+00  0.00000000E+00
  0.00000000E+00  0.00000000E+00  0.00000000E+00
  0.00000000E+00  0.00000000E+00  0.00000000E+00
  0.00000000E+00  0.00000000E+00  0.00000000E+00
  0.00000000E+00  0.00000000E+00  0.00000000E+00
  0.00000000E+00  0.00000000E+00  0.00000000E+00
  0.00000000E+00  0.00000000E+00  0.00000000E+00
  0.00000000E+00  0.00000000E+00  0.00000000E+00
  0.00000000E+00  0.00000000E+00  0.00000000E+00
  0.00000000E+00  0.00000000E+00  0.00000000E+00
  0.00000000E+00  0.00000000E+00  0.00000000E+00
  0.00000000E+00  0.00000000E+00  0.00000000E+00
  0.00000000E+00  0.00000000E+00  0.00000000E+00
  0.00000000E+00  0.00000000E+00  0.00000000E+00
  0.00000000E+00  0.00000000E+00  0.00000000E+00
  0.00000000E+00  0.00000000E+00  0.00000000E+00
  0.00000000E+00  0.00000000E+00  0.00000000E+00
  0.00000000E+00  0.00000000E+00  0.00000000E+00
  0.00000000E+00  0.00000000E+00  0.00000000E+00
  0.00000000E+00  0.00000000E+00  0.00000000E+00
  0.00000000E+00  0.00000000E+00  0.00000000E+00
  0.00000000E+00  0.00000000E+00  0.00000000E+00
  0.00000000E+00  0.00000000E+00  0.00000000E+00
  0.00000000E+00  0.00000000E+00  0.00000000E+00
  0.00000000E+00  0.00000000E+00  0.00000000E+00
  0.00000000E+00  0.00000000E+00  0.00000000E+00
  0.00000000E+00  0.00000000E+00  0.00000000E+00
  0.00000000E+00  0.00000000E+00  0.00000000E+00
  0.00000000E+00  0.00000000E+00  0.00000000E+00
  0.00000000E+00  0.00000000E+00  0.00000000E+00
  0.00000000E+00  0.00000000E+00  0.00000000E+00
  0.00000000E+00  0.00000000E+00  0.00000000E+00
  0.00000000E+00  0.00000000E+00  0.00000000E+00
  0.00000000E+00  0.00000000E+00  0.00000000E+00
  0.00000000E+00  0.00000000E+00  0.00000000E+00
  0.00000000E+00  0.00000000E+00  0.00000000E+00
