title                                   
    1.000000000000000     
     9.7114256790069469   -0.0001901470032373   -0.0179578481572891
    -0.0002407462632000    9.7694133398844620    0.0050119239722235
    -0.0119989927660100    0.0033474748424761    6.5676393751735702
   Hf   Ta   Ti   V    W 
     1    15    12     2     6
Direct
  0.8369727188409624  0.8316617223352611  0.7407113195628533
  0.3339734842057960  0.6715153628429311  0.5018848245976181
  0.8348424857736159  0.1754648532726794  0.2498364726855180
  0.4929439511058680  0.1690741322204193  0.2480613601042359
  0.8305654525740669  0.8264643678717076  0.2582292143534602
  0.6586820967072832  0.6540658045136623  0.5127472026808988
  0.8346073375958346  0.5033372965516704  0.2550908139771614
  0.0032947315615009  0.0056603605756681  0.4890880275366533
  0.3336034547504481  0.3419840818301043 -0.0093627261488072
 -0.0004800082229731  0.3346230088514903 -0.0135348947704650
  0.0044839942026605  0.6644412773798464  0.0025685045728535
  0.6668442638231693  0.3384508190164202 -0.0136114000147911
  0.1671046695635079  0.4961074543432442  0.2587664544029648
  0.3307979408187338  0.6620416776654356 -0.0031739488639612
  0.3318994744899395 -0.0113102340015861  0.4935591005651877
  0.6751083760604558  0.0117412289074374  0.0011717747858235
  0.6617365774924036  0.6510205278048968 -0.0149234091013065
  0.1797225485928072  0.1601987259811690  0.7505847640022668
  0.1641259670101332  0.8350296380133180  0.7515765956284248
  0.4879741277199620  0.1635325434478762  0.7485495655260209
  0.6682971808261813  0.0149135601001890  0.4984071788143400
  0.0002543015443121  0.0031757029005119  0.0109713185416765
 -0.0046477627439881  0.3357052489674478  0.5176831504055929
  0.4962455308720845  0.4921296327410246  0.2620329265740943
  0.1757156395966287  0.1713764632737694  0.2498053814416382
  0.5017761425829247  0.8382056512488618  0.2305832659517029
  0.4958286211752721  0.8414141408383760  0.7699637633431684
  0.6705824929829257  0.3318735807573970  0.5134589425299221
  0.4928894901584338  0.4911991855549127  0.7337208101270076
  0.0065863747100739  0.6559944503902911  0.5018531366513693
  0.1686219016866017  0.8328227223640327  0.2478624338796018
  0.3342191307117575  0.3371159573407083  0.5061025792363650
  0.8348191944528636  0.5044794030163992  0.7468624087833953
  0.8348170133747049  0.1655889835910916  0.7516930256694467
  0.1679184032896560  0.5027741905532034  0.7450531092118160
  0.3272727001133945 -0.0038735230618675  0.0061269527562529
 
  0.00000000E+00  0.00000000E+00  0.00000000E+00
  0.00000000E+00  0.00000000E+00  0.00000000E+00
  0.00000000E+00  0.00000000E+00  0.00000000E+00
  0.00000000E+00  0.00000000E+00  0.00000000E+00
  0.00000000E+00  0.00000000E+00  0.00000000E+00
  0.00000000E+00  0.00000000E+00  0.00000000E+00
  0.00000000E+00  0.00000000E+00  0.00000000E+00
  0.00000000E+00  0.00000000E+00  0.00000000E+00
  0.00000000E+00  0.00000000E+00  0.00000000E+00
  0.00000000E+00  0.00000000E+00  0.00000000E+00
  0.00000000E+00  0.00000000E+00  0.00000000E+00
  0.00000000E+00  0.00000000E+00  0.00000000E+00
  0.00000000E+00  0.00000000E+00  0.00000000E+00
  0.00000000E+00  0.00000000E+00  0.00000000E+00
  0.00000000E+00  0.00000000E+00  0.00000000E+00
  0.00000000E+00  0.00000000E+00  0.00000000E+00
  0.00000000E+00  0.00000000E+00  0.00000000E+00
  0.00000000E+00  0.00000000E+00  0.00000000E+00
  0.00000000E+00  0.00000000E+00  0.00000000E+00
  0.00000000E+00  0.00000000E+00  0.00000000E+00
  0.00000000E+00  0.00000000E+00  0.00000000E+00
  0.00000000E+00  0.00000000E+00  0.00000000E+00
  0.00000000E+00  0.00000000E+00  0.00000000E+00
  0.00000000E+00  0.00000000E+00  0.00000000E+00
  0.00000000E+00  0.00000000E+00  0.00000000E+00
  0.00000000E+00  0.00000000E+00  0.00000000E+00
  0.00000000E+00  0.00000000E+00  0.00000000E+00
  0.00000000E+00  0.00000000E+00  0.00000000E+00
  0.00000000E+00  0.00000000E+00  0.00000000E+00
  0.00000000E+00  0.00000000E+00  0.00000000E+00
  0.00000000E+00  0.00000000E+00  0.00000000E+00
  0.00000000E+00  0.00000000E+00  0.00000000E+00
  0.00000000E+00  0.00000000E+00  0.00000000E+00
  0.00000000E+00  0.00000000E+00  0.00000000E+00
  0.00000000E+00  0.00000000E+00  0.00000000E+00
  0.00000000E+00  0.00000000E+00  0.00000000E+00
