title                                   
    1.000000000000000     
    10.0325400231700712   -0.0383760219412237    0.0412124941801055
    -0.0395346141502654   10.1376707816324867   -0.0143845021752937
     0.0271074756058524   -0.0104926042859181    6.7367012515102207
   Hf   Mo   V    Zr
    14     4    11     7
Direct
  0.3351315307500440  0.3226726972149960 -0.0421969802394788
  0.1597138288338670  0.1654232104346667  0.2362904956217124
  0.1353608467400082  0.1498347519076246  0.7500291309586741
  0.3313438992332467  0.3472866465659656  0.4837082196834004
  0.4964641333073153  0.5233067292420946  0.7786720105720829
  0.1816100582360310  0.8554379880401799  0.2657113337142596
  0.3240416612895661  0.6430877219714929  0.4614358193312375
  0.3596712652784415  0.0342203812502658  0.5334536992983168
  0.6588394358548990  0.3338382573912641  0.4992597649447221
  0.0018155337900286  0.6552438747382572  0.0078700754566624
  0.6907959018764370  0.6636736159071724  0.0222866971298503
  0.4971166590897607  0.8451404343882837  0.2392880216466444
  0.5074703604593809  0.8409319861035355  0.7610979898868266
  0.5102273950692335  0.1642147302214719  0.2148030384358888
  0.8336952204769905  0.4864263785523851  0.7669763397016722
  0.6696935955569602  0.0015647786834320  0.0063929112810723
  0.8232880522501280  0.1608429226927796  0.2580823974784423
  0.8356079508968358  0.4819863963927725  0.2421229371410889
  0.1579688292238053  0.4743770470119461  0.2033274358898799
  0.5339610700355276  0.1511372497833096  0.7862611148074045
  0.6672666440931282  0.0164124854651242  0.4916863549901073
  0.3396395296840272  0.0240729574062742 -0.0361895009304896
 -0.0333007601910945  0.0131582517658721  0.4632143702548460
 -0.0160303536496995  0.3492038846891131  0.0095460344074513
  0.6803553494437660  0.3485296741340497  0.0129381764927973
  0.3187233725375170  0.6356963364192129  0.0386769975312233
  0.5049787005767162  0.4886058720445911  0.2031941577658031
  0.8164920625457958  0.8507692697380191  0.2896973288382377
  0.1774482897336982  0.5117890706592095  0.7800095236665322
 -0.0173382436001982 -0.0284350739186843  0.0317999591302340
  0.8276828739994954  0.8498775864701203  0.7263788536988469
 -0.0030812633146424  0.3448264142868279  0.4964821105655451
  0.8300544678615057  0.1685886693933477  0.7647681531064493
  0.6730458442498259  0.6504619097220188  0.4861733887013611
  0.0000544548425946  0.6542120138543861  0.5028793840453658
  0.1901918029390594  0.8215828793766223  0.7638722549953307
 
  0.00000000E+00  0.00000000E+00  0.00000000E+00
  0.00000000E+00  0.00000000E+00  0.00000000E+00
  0.00000000E+00  0.00000000E+00  0.00000000E+00
  0.00000000E+00  0.00000000E+00  0.00000000E+00
  0.00000000E+00  0.00000000E+00  0.00000000E+00
  0.00000000E+00  0.00000000E+00  0.00000000E+00
  0.00000000E+00  0.00000000E+00  0.00000000E+00
  0.00000000E+00  0.00000000E+00  0.00000000E+00
  0.00000000E+00  0.00000000E+00  0.00000000E+00
  0.00000000E+00  0.00000000E+00  0.00000000E+00
  0.00000000E+00  0.00000000E+00  0.00000000E+00
  0.00000000E+00  0.00000000E+00  0.00000000E+00
  0.00000000E+00  0.00000000E+00  0.00000000E+00
  0.00000000E+00  0.00000000E+00  0.00000000E+00
  0.00000000E+00  0.00000000E+00  0.00000000E+00
  0.00000000E+00  0.00000000E+00  0.00000000E+00
  0.00000000E+00  0.00000000E+00  0.00000000E+00
  0.00000000E+00  0.00000000E+00  0.00000000E+00
  0.00000000E+00  0.00000000E+00  0.00000000E+00
  0.00000000E+00  0.00000000E+00  0.00000000E+00
  0.00000000E+00  0.00000000E+00  0.00000000E+00
  0.00000000E+00  0.00000000E+00  0.00000000E+00
  0.00000000E+00  0.00000000E+00  0.00000000E+00
  0.00000000E+00  0.00000000E+00  0.00000000E+00
  0.00000000E+00  0.00000000E+00  0.00000000E+00
  0.00000000E+00  0.00000000E+00  0.00000000E+00
  0.00000000E+00  0.00000000E+00  0.00000000E+00
  0.00000000E+00  0.00000000E+00  0.00000000E+00
  0.00000000E+00  0.00000000E+00  0.00000000E+00
  0.00000000E+00  0.00000000E+00  0.00000000E+00
  0.00000000E+00  0.00000000E+00  0.00000000E+00
  0.00000000E+00  0.00000000E+00  0.00000000E+00
  0.00000000E+00  0.00000000E+00  0.00000000E+00
  0.00000000E+00  0.00000000E+00  0.00000000E+00
  0.00000000E+00  0.00000000E+00  0.00000000E+00
  0.00000000E+00  0.00000000E+00  0.00000000E+00
