title                                   
    1.000000000000000     
    10.0670991914153305   -0.0399069355326496   -0.0444575626597496
    -0.0394199600766856   10.1600650665059486    0.0822942705804090
    -0.0289639842597546    0.0551339977732221    7.0122787867479106
   Hf   Mo   Ta   Ti   Zr
    15     3    11     4     3
Direct
  0.6692362494839802  0.6873000238013945  0.4836371416218941
 -0.0114421743571473  0.3188562114600745  0.5071195772896570
  0.0013771563758837  0.3386784601394542 -0.0133638636790148
  0.3333629854651384  0.0209230494654164  0.0328279374152487
  0.6637191102532120  0.6525231773714850  0.0068140914835786
  0.8348376071967318  0.8464481573861266  0.7773521286225380
  0.1714878561819219  0.4933592256429007  0.2709550031910001
  0.3401194976213898  0.6475169138501418 -0.0131786908181536
  0.3352411812664080 -0.0033429313796464  0.4796591389188881
  0.6694561644324962  0.0053360823960520  0.4787086106007166
  0.8072513808765707  0.4900706226004080  0.7167899673528972
  0.0012780986995547  0.0042547009145747  0.4917139416848911
  0.4878596966153670  0.4945015675435799  0.2923762738484515
  0.5026102864420861  0.1712600344722057  0.7460570474006978
  0.6568853883344099  0.3367626053169053  0.0215343381318891
  0.3297139624844999  0.3279213346885572  0.5109409029595355
  0.5019201877009545  0.1717953024338095  0.2567458081919013
  0.6682982202912897  0.0038893057935069  0.0137577836592072
  0.1831275579436417  0.1762887657642215  0.7434344850939528
  0.4953160896192527  0.4860120559612904  0.7252414892904544
  0.8358557313197230  0.5049516157620091  0.2655914776486349
 -0.0057282343911379  0.6499167541492201  0.0039528087992753
  0.8367574349038741  0.1541483827233846  0.2149435435925261
  0.8394174080577420  0.8420084395572165  0.2140623981953395
  0.0103126381728922  0.0162228931714935  0.0072501470720607
  0.1780276524722861  0.4907089241788206  0.7318997685048926
  0.5007960075179333  0.8318848789347262  0.2278247524207589
  0.1683012596556639  0.1862385123366461  0.2653048235583663
  0.3329100792895903  0.6753073125625894  0.5161563824828140
  0.1643385927781401  0.8203589684143763  0.2265735475353017
  0.6739486241930651  0.3079892665538174  0.4640180480683950
  0.8160929922902624  0.1562071334613296  0.7775546019122449
  0.3385061589503757  0.3321808123817060  0.0068099770128830
  0.1614818097797188  0.8354224415347762  0.7792317835552571
 -0.0000290209958958  0.6767141078775206  0.4963754778325496
  0.5073543630781239  0.8493848907779092  0.7733273495484704
 
  0.00000000E+00  0.00000000E+00  0.00000000E+00
  0.00000000E+00  0.00000000E+00  0.00000000E+00
  0.00000000E+00  0.00000000E+00  0.00000000E+00
  0.00000000E+00  0.00000000E+00  0.00000000E+00
  0.00000000E+00  0.00000000E+00  0.00000000E+00
  0.00000000E+00  0.00000000E+00  0.00000000E+00
  0.00000000E+00  0.00000000E+00  0.00000000E+00
  0.00000000E+00  0.00000000E+00  0.00000000E+00
  0.00000000E+00  0.00000000E+00  0.00000000E+00
  0.00000000E+00  0.00000000E+00  0.00000000E+00
  0.00000000E+00  0.00000000E+00  0.00000000E+00
  0.00000000E+00  0.00000000E+00  0.00000000E+00
  0.00000000E+00  0.00000000E+00  0.00000000E+00
  0.00000000E+00  0.00000000E+00  0.00000000E+00
  0.00000000E+00  0.00000000E+00  0.00000000E+00
  0.00000000E+00  0.00000000E+00  0.00000000E+00
  0.00000000E+00  0.00000000E+00  0.00000000E+00
  0.00000000E+00  0.00000000E+00  0.00000000E+00
  0.00000000E+00  0.00000000E+00  0.00000000E+00
  0.00000000E+00  0.00000000E+00  0.00000000E+00
  0.00000000E+00  0.00000000E+00  0.00000000E+00
  0.00000000E+00  0.00000000E+00  0.00000000E+00
  0.00000000E+00  0.00000000E+00  0.00000000E+00
  0.00000000E+00  0.00000000E+00  0.00000000E+00
  0.00000000E+00  0.00000000E+00  0.00000000E+00
  0.00000000E+00  0.00000000E+00  0.00000000E+00
  0.00000000E+00  0.00000000E+00  0.00000000E+00
  0.00000000E+00  0.00000000E+00  0.00000000E+00
  0.00000000E+00  0.00000000E+00  0.00000000E+00
  0.00000000E+00  0.00000000E+00  0.00000000E+00
  0.00000000E+00  0.00000000E+00  0.00000000E+00
  0.00000000E+00  0.00000000E+00  0.00000000E+00
  0.00000000E+00  0.00000000E+00  0.00000000E+00
  0.00000000E+00  0.00000000E+00  0.00000000E+00
  0.00000000E+00  0.00000000E+00  0.00000000E+00
  0.00000000E+00  0.00000000E+00  0.00000000E+00
