title                                   
    1.000000000000000     
    10.0138984122084143    0.0071427059131237    0.0298669369616250
     0.0070850747315739   10.0380619415376486   -0.0091866295638730
     0.0198504517877589   -0.0061259877676858    6.7000603773182545
   Nb   Ta   W    Zr
    11    14     4     7
Direct
  0.5003424485103579  0.4997299256973264  0.2450919935501284
  0.0037195893289803  0.6735392282997791  0.5032950137541435
  0.4981741335272840  0.1700820867921378  0.2505937368475413
 -0.0004161371950192 -0.0019620673581002  0.5100110005083657
  0.4923654743032665  0.8292376225045197  0.2485636845202213
  0.6691698226120835  0.6713182894402984  0.4908084362294307
  0.8388790810180365  0.8319695122302294  0.2565893249776425
  0.3369609240480919  0.3271415331846197  0.4978210986149833
  0.8355297560465310  0.8300269273836109  0.7429971162898382
  0.3260095364777465  0.0027024166422166 -0.0068398184521102
  0.4994906771540056  0.1718419056790088  0.7505137910173931
  0.3295696872854595 -0.0013829495981271  0.5089886242964009
  0.6642736139692040  0.3258678617272441  0.4987187171425524
  0.6640394917474424  0.0036504988145441  0.4948643302042593
  0.1665900473445003  0.8348484682561453  0.2472441688689830
 -0.0004970937818779  0.3277396479728060  0.5175616098566850
  0.0003588428461375  0.6774801825438164 -0.0048287664912279
 -0.0004864566230382 -0.0054951167757174 -0.0118871109412490
  0.8270668882804952  0.1689503808342196  0.7457869163388753
  0.8324452673456386  0.1696229153090624  0.2554130169247921
  0.3348726803794742  0.3264249065881721 -0.0004767781054841
  0.3293950684279449  0.6757682935930251  0.4898300249932151
  0.1736228357436654  0.5085659601383760  0.2475284936323028
  0.6764475153377950  0.6714253407999160  0.0107667397480037
  0.8256011994282846  0.4994785831027281  0.7486583905888415
  0.6651974867073871  0.3273160732528069  0.0010659470639588
  0.1678173096622050  0.8329081891303853  0.7514048650929911
  0.3268758580678323  0.6722474030862047  0.0106265834685534
  0.1698503991747350  0.1607966244727536  0.7446332732425542
  0.1628955124893221  0.1606225091412064  0.2539952627846176
  0.8350329743157155  0.4962900237285125  0.2519647656538267
  0.4956733079433455  0.8267937849524096  0.7557690155558403
  0.5033425040340019  0.5021347505162949  0.7548021403104481
  0.6692841503495740 -0.0014335891370597  0.0072143879104176
  0.1750191639376567  0.5057655412701731  0.7485916756516936
  0.0054864397557345  0.3279863357844563 -0.0176816716494275
 
  0.00000000E+00  0.00000000E+00  0.00000000E+00
  0.00000000E+00  0.00000000E+00  0.00000000E+00
  0.00000000E+00  0.00000000E+00  0.00000000E+00
  0.00000000E+00  0.00000000E+00  0.00000000E+00
  0.00000000E+00  0.00000000E+00  0.00000000E+00
  0.00000000E+00  0.00000000E+00  0.00000000E+00
  0.00000000E+00  0.00000000E+00  0.00000000E+00
  0.00000000E+00  0.00000000E+00  0.00000000E+00
  0.00000000E+00  0.00000000E+00  0.00000000E+00
  0.00000000E+00  0.00000000E+00  0.00000000E+00
  0.00000000E+00  0.00000000E+00  0.00000000E+00
  0.00000000E+00  0.00000000E+00  0.00000000E+00
  0.00000000E+00  0.00000000E+00  0.00000000E+00
  0.00000000E+00  0.00000000E+00  0.00000000E+00
  0.00000000E+00  0.00000000E+00  0.00000000E+00
  0.00000000E+00  0.00000000E+00  0.00000000E+00
  0.00000000E+00  0.00000000E+00  0.00000000E+00
  0.00000000E+00  0.00000000E+00  0.00000000E+00
  0.00000000E+00  0.00000000E+00  0.00000000E+00
  0.00000000E+00  0.00000000E+00  0.00000000E+00
  0.00000000E+00  0.00000000E+00  0.00000000E+00
  0.00000000E+00  0.00000000E+00  0.00000000E+00
  0.00000000E+00  0.00000000E+00  0.00000000E+00
  0.00000000E+00  0.00000000E+00  0.00000000E+00
  0.00000000E+00  0.00000000E+00  0.00000000E+00
  0.00000000E+00  0.00000000E+00  0.00000000E+00
  0.00000000E+00  0.00000000E+00  0.00000000E+00
  0.00000000E+00  0.00000000E+00  0.00000000E+00
  0.00000000E+00  0.00000000E+00  0.00000000E+00
  0.00000000E+00  0.00000000E+00  0.00000000E+00
  0.00000000E+00  0.00000000E+00  0.00000000E+00
  0.00000000E+00  0.00000000E+00  0.00000000E+00
  0.00000000E+00  0.00000000E+00  0.00000000E+00
  0.00000000E+00  0.00000000E+00  0.00000000E+00
  0.00000000E+00  0.00000000E+00  0.00000000E+00
  0.00000000E+00  0.00000000E+00  0.00000000E+00
