title                                   
    1.000000000000000     
    10.0152956187818187    0.0197216879399845   -0.0169701538786751
     0.0197509125829560   10.0068839844469597    0.0126986446921092
    -0.0113271036556871    0.0084739454391174    6.6715010086669286
   Nb   Ta   V    Zr
    11    14     4     7
Direct
  0.1660705830350205  0.4956161431223311  0.7428834951262855
  0.3343962674090786 -0.0030340503709549  0.4933041981640960
  0.0052675764518384  0.3398938776375922  0.5000699461675027
  0.6628969933125763  0.3375911051492234 -0.0030545927434335
  0.0042900999616229  0.6643492176639112 -0.0059933019857889
  0.1575471399037822  0.8264523288331701  0.2451176005744149
  0.6636198248613727  0.6692426078712760 -0.0026861134870665
  0.1715430670389634  0.1744114218408757  0.2541531229922935
  0.5018966730201232  0.4957599713806161  0.7411811696092897
  0.6662598465687332  0.3372994150134971  0.5063642169538403
  0.8345787361549831  0.5028195876056957  0.2495797719161664
  0.8327626900973547  0.5030366461273633  0.7525784009984872
  0.8331972028639468  0.8316923134286187  0.7612364424814970
  0.5059722304342346  0.8334101065687182  0.7372445618303228
  0.6414937056763994 -0.0033454881004434  0.0031262948124857
  0.6682155432654078  0.6711311839714243  0.5018010802258005
  0.6549619870569662 -0.0039085621500952  0.4989516692169914
  0.0088062656511496  0.3404699012681235  0.0022072905862379
  0.3286303894922207  0.3298357421045632 -0.0049382858827556
  0.0019517298363418  0.6660617036086094  0.5058114584480122
  0.4980193033201903  0.1750766212012317  0.2591022885229948
  0.3272325835812033  0.6773193874251547  0.5094270033781363
  0.1727280577553072  0.1726671686441641  0.7449441374780039
  0.4946516941886475  0.1719808282443051  0.7401413399485250
  0.1705741587567512  0.4976494792847028  0.2579465083876371
  0.0266034941718409 -0.0129595252185838 -0.0210074198300884
  0.3290867410184400  0.3254403184628265  0.5038446790853320
  0.5122369769926194  0.8352645514354371  0.2635625767885258
  0.1540064249360529  0.8260239590953492  0.7524110039754164
  0.8339704134793103  0.8393463788144694  0.2366555114406563
  0.8343258469591572  0.1612387555536157  0.7646815175215899
  0.8311728345417875  0.1664122388520523  0.2435734391210806
  0.0143806256121489 -0.0090449049912387  0.5147408123604725
  0.3308507106483984 -0.0035624708785390  0.0027336256178674
  0.3322616906445831  0.6712185724602452 -0.0101518595545737
  0.4935398913014479  0.4971434690406930  0.2584564097537442
 
  0.00000000E+00  0.00000000E+00  0.00000000E+00
  0.00000000E+00  0.00000000E+00  0.00000000E+00
  0.00000000E+00  0.00000000E+00  0.00000000E+00
  0.00000000E+00  0.00000000E+00  0.00000000E+00
  0.00000000E+00  0.00000000E+00  0.00000000E+00
  0.00000000E+00  0.00000000E+00  0.00000000E+00
  0.00000000E+00  0.00000000E+00  0.00000000E+00
  0.00000000E+00  0.00000000E+00  0.00000000E+00
  0.00000000E+00  0.00000000E+00  0.00000000E+00
  0.00000000E+00  0.00000000E+00  0.00000000E+00
  0.00000000E+00  0.00000000E+00  0.00000000E+00
  0.00000000E+00  0.00000000E+00  0.00000000E+00
  0.00000000E+00  0.00000000E+00  0.00000000E+00
  0.00000000E+00  0.00000000E+00  0.00000000E+00
  0.00000000E+00  0.00000000E+00  0.00000000E+00
  0.00000000E+00  0.00000000E+00  0.00000000E+00
  0.00000000E+00  0.00000000E+00  0.00000000E+00
  0.00000000E+00  0.00000000E+00  0.00000000E+00
  0.00000000E+00  0.00000000E+00  0.00000000E+00
  0.00000000E+00  0.00000000E+00  0.00000000E+00
  0.00000000E+00  0.00000000E+00  0.00000000E+00
  0.00000000E+00  0.00000000E+00  0.00000000E+00
  0.00000000E+00  0.00000000E+00  0.00000000E+00
  0.00000000E+00  0.00000000E+00  0.00000000E+00
  0.00000000E+00  0.00000000E+00  0.00000000E+00
  0.00000000E+00  0.00000000E+00  0.00000000E+00
  0.00000000E+00  0.00000000E+00  0.00000000E+00
  0.00000000E+00  0.00000000E+00  0.00000000E+00
  0.00000000E+00  0.00000000E+00  0.00000000E+00
  0.00000000E+00  0.00000000E+00  0.00000000E+00
  0.00000000E+00  0.00000000E+00  0.00000000E+00
  0.00000000E+00  0.00000000E+00  0.00000000E+00
  0.00000000E+00  0.00000000E+00  0.00000000E+00
  0.00000000E+00  0.00000000E+00  0.00000000E+00
  0.00000000E+00  0.00000000E+00  0.00000000E+00
  0.00000000E+00  0.00000000E+00  0.00000000E+00
