title                                   
    1.000000000000000     
     9.7532240756507829   -0.0197570968183970    0.0116468297104081
    -0.0197641416102943    9.7485480910350208   -0.0248088034455143
     0.0077778983473717   -0.0165553671766815    6.4905477135922913
   Hf   Mo   Nb   Ta   W 
     1     2     6    12    15
Direct
  0.8355209016758841  0.4987345595776199  0.2529561533047183
  0.4992091338023267  0.8359055992372193  0.2498841864087341
  0.8341037684587544  0.1672220226785706  0.2469385061141430
  0.1660734339688293  0.1656789245019736  0.7509188021364839
  0.8340966938087615  0.1676606795852323  0.7498904741024425
 -0.0006688493351259  0.0021362776517545  0.0025864589521825
  0.6645019046439357  0.3308475501196110  0.4983614027518384
  0.0029625074798499  0.6702461288973031 -0.0024191969757858
  0.3318828654376665  0.3362316116533576 -0.0008061996908006
  0.4997091789028236  0.1630496618858842  0.7531469878198361
  0.4985151244340850  0.1648476355163877  0.2439864223226633
  0.3347310039306840  0.6648145295837999  0.5029564840923476
  0.6611395098737679  0.6683315510883244  0.0024190830354564
  0.6699367571300285 -0.0017775122599362  0.4907157516815360
  0.5006666631971392  0.8374815365315929  0.7488354653706142
  0.3360496505755817  0.6660785073637068 -0.0006325179140064
  0.1605236945106649  0.4990387923452702  0.2522586101206215
  0.8344014375434792  0.4990948487199177  0.7476725280865923
  0.8337591882875518  0.8329049963368949  0.7479260831290906
  0.1662652578911772  0.8364272718675169  0.2537574579473344
  0.3321663827703779  0.3366976829256835  0.5015737951366361
  0.1657548244447043  0.1651546556814252  0.2513756849830985
  0.0036662287142028  0.3290296145341351  0.5023819018514425
  0.1629625609182374  0.4994600140796954  0.7497917466181522
  0.3315792720101662 -0.0013664616285490  0.0018585925836587
  0.8347418147657896  0.8327753683835323  0.2523994376461939
 -0.0001746567548462  0.0007093688245700  0.4971083831907752
  0.3321376644808361 -0.0011977210966823  0.4978506240337702
  0.0038013381914392  0.6702496351522582  0.5050897049451868
  0.5026448491601283  0.4998007058728544  0.7503706033074645
  0.1677413088828983  0.8360828014402334  0.7473908860037702
  0.6636550399759747  0.3332432171196735 -0.0014017070622986
  0.0019775715259876  0.3291910687863805 -0.0012429816381684
  0.6683499383065229 -0.0020097942081991  0.0039982028687033
  0.5030675289810347  0.4984006480933348  0.2501197280774352
  0.6625485074086810  0.6688240231576529  0.4999824546581373
 
  0.00000000E+00  0.00000000E+00  0.00000000E+00
  0.00000000E+00  0.00000000E+00  0.00000000E+00
  0.00000000E+00  0.00000000E+00  0.00000000E+00
  0.00000000E+00  0.00000000E+00  0.00000000E+00
  0.00000000E+00  0.00000000E+00  0.00000000E+00
  0.00000000E+00  0.00000000E+00  0.00000000E+00
  0.00000000E+00  0.00000000E+00  0.00000000E+00
  0.00000000E+00  0.00000000E+00  0.00000000E+00
  0.00000000E+00  0.00000000E+00  0.00000000E+00
  0.00000000E+00  0.00000000E+00  0.00000000E+00
  0.00000000E+00  0.00000000E+00  0.00000000E+00
  0.00000000E+00  0.00000000E+00  0.00000000E+00
  0.00000000E+00  0.00000000E+00  0.00000000E+00
  0.00000000E+00  0.00000000E+00  0.00000000E+00
  0.00000000E+00  0.00000000E+00  0.00000000E+00
  0.00000000E+00  0.00000000E+00  0.00000000E+00
  0.00000000E+00  0.00000000E+00  0.00000000E+00
  0.00000000E+00  0.00000000E+00  0.00000000E+00
  0.00000000E+00  0.00000000E+00  0.00000000E+00
  0.00000000E+00  0.00000000E+00  0.00000000E+00
  0.00000000E+00  0.00000000E+00  0.00000000E+00
  0.00000000E+00  0.00000000E+00  0.00000000E+00
  0.00000000E+00  0.00000000E+00  0.00000000E+00
  0.00000000E+00  0.00000000E+00  0.00000000E+00
  0.00000000E+00  0.00000000E+00  0.00000000E+00
  0.00000000E+00  0.00000000E+00  0.00000000E+00
  0.00000000E+00  0.00000000E+00  0.00000000E+00
  0.00000000E+00  0.00000000E+00  0.00000000E+00
  0.00000000E+00  0.00000000E+00  0.00000000E+00
  0.00000000E+00  0.00000000E+00  0.00000000E+00
  0.00000000E+00  0.00000000E+00  0.00000000E+00
  0.00000000E+00  0.00000000E+00  0.00000000E+00
  0.00000000E+00  0.00000000E+00  0.00000000E+00
  0.00000000E+00  0.00000000E+00  0.00000000E+00
  0.00000000E+00  0.00000000E+00  0.00000000E+00
  0.00000000E+00  0.00000000E+00  0.00000000E+00
