title                                   
    1.000000000000000     
     9.3062121003460234    0.0432943836788783   -0.0966828394775251
     0.0437225511564703    9.3569952484772489   -0.0391734605145330
    -0.0645887099476793   -0.0263275433426961    6.2060393876471212
   Cr   Hf   Nb   Ta
    19     3     4    10
Direct
  0.1687599795393417  0.8427487397842692  0.7635223625271376
  0.6649711331266823 -0.0100263898189201  0.4974753903802173
  0.3253350149725672 -0.0079570354524412  0.0083710205694703
  0.1657029930161301  0.8471152611432829  0.2496201844595507
  0.0157065607294906 -0.0088607841666009  0.0118583739218374
  0.8318386920581575  0.5004018136217362  0.2475867031499415
  0.4965802750389033  0.5041528196964838  0.7569964421274755
  0.4917849487213156  0.8229099080762194  0.7453369932691803
  0.4915335625672291  0.1716127267642348  0.7510970919141836
  0.6663049019408623  0.6628822347382647  0.5029568475860716
  0.3351709827914187  0.6628391550562810 -0.0067905347206339
  0.4976799009028599  0.5032532362646372  0.2438187713795058
  0.1752570071354869  0.4975193653696404  0.7615068873499382
  0.8287964856227807  0.5019529489838781  0.7404614673389851
  0.0111552660753111 -0.0080877842840331  0.4976996677681291
  0.1662587198163885  0.1622422135332018  0.2495636947405850
  0.0054182041913172  0.3409730077411344  0.0070708028747192
  0.8272528872914271  0.8345618815137491  0.7238636374169645
  0.3370165447788943  0.3380674805314681  0.0025812166794023
 -0.0017865223669907  0.6706988155240542 -0.0116873387472004
  0.6541179485064282 -0.0091901519520345 -0.0304588890079822
  0.8469868728300560  0.1565128946139221  0.7457924565653479
  0.1738389487694985  0.4967692910667307  0.2336451183007382
  0.6627522125825984  0.3432267912736766 -0.0053581423136516
  0.8314512946637010  0.8422429996289161  0.2569000761331585
  0.3300310731264809 -0.0027332900229717  0.5154065758325557
  0.6642118179909124  0.3474882914575827  0.4986155924616193
  0.1667844730497721  0.1650651097127432  0.7796515870259718
  0.3312613225585128  0.6651969930391671  0.5156317925792162
  0.4932492194681637  0.1629010136179780  0.2452777471487392
 -0.0005182644488713  0.6697755940266471  0.5043731223712130
  0.4930315664361725  0.8272341380454095  0.2523233504250792
  0.3373099050811086  0.3367640053260314  0.5120263367046027
  0.0052053948642819  0.3452785268693404  0.5009533640627848
  0.8451799387966170  0.1632520921497672  0.2472288132657869
  0.6643687377749935  0.6612160865265549 -0.0149185835406403
 
  0.00000000E+00  0.00000000E+00  0.00000000E+00
  0.00000000E+00  0.00000000E+00  0.00000000E+00
  0.00000000E+00  0.00000000E+00  0.00000000E+00
  0.00000000E+00  0.00000000E+00  0.00000000E+00
  0.00000000E+00  0.00000000E+00  0.00000000E+00
  0.00000000E+00  0.00000000E+00  0.00000000E+00
  0.00000000E+00  0.00000000E+00  0.00000000E+00
  0.00000000E+00  0.00000000E+00  0.00000000E+00
  0.00000000E+00  0.00000000E+00  0.00000000E+00
  0.00000000E+00  0.00000000E+00  0.00000000E+00
  0.00000000E+00  0.00000000E+00  0.00000000E+00
  0.00000000E+00  0.00000000E+00  0.00000000E+00
  0.00000000E+00  0.00000000E+00  0.00000000E+00
  0.00000000E+00  0.00000000E+00  0.00000000E+00
  0.00000000E+00  0.00000000E+00  0.00000000E+00
  0.00000000E+00  0.00000000E+00  0.00000000E+00
  0.00000000E+00  0.00000000E+00  0.00000000E+00
  0.00000000E+00  0.00000000E+00  0.00000000E+00
  0.00000000E+00  0.00000000E+00  0.00000000E+00
  0.00000000E+00  0.00000000E+00  0.00000000E+00
  0.00000000E+00  0.00000000E+00  0.00000000E+00
  0.00000000E+00  0.00000000E+00  0.00000000E+00
  0.00000000E+00  0.00000000E+00  0.00000000E+00
  0.00000000E+00  0.00000000E+00  0.00000000E+00
  0.00000000E+00  0.00000000E+00  0.00000000E+00
  0.00000000E+00  0.00000000E+00  0.00000000E+00
  0.00000000E+00  0.00000000E+00  0.00000000E+00
  0.00000000E+00  0.00000000E+00  0.00000000E+00
  0.00000000E+00  0.00000000E+00  0.00000000E+00
  0.00000000E+00  0.00000000E+00  0.00000000E+00
  0.00000000E+00  0.00000000E+00  0.00000000E+00
  0.00000000E+00  0.00000000E+00  0.00000000E+00
  0.00000000E+00  0.00000000E+00  0.00000000E+00
  0.00000000E+00  0.00000000E+00  0.00000000E+00
  0.00000000E+00  0.00000000E+00  0.00000000E+00
  0.00000000E+00  0.00000000E+00  0.00000000E+00
