title                                   
    1.000000000000000     
     9.3254099575064995    0.0465551988900360    0.1362048145656822
     0.0462808869315490    9.1888285682792663    0.0548022589709490
     0.0908424405267296    0.0368333487195576    6.1908722594849417
   Cr   Nb   V    Zr
    11     7    14     4
Direct
  0.1662262366527067  0.8223616651566769  0.2615292199524290
  0.1624135157741109  0.8221764503199608  0.7354249220920959
  0.3278656824633913 -0.0027556162280773  0.4996081709335670
  0.0135355185676797  0.6680165623451820 -0.0208694276345217
  0.1574810687595140  0.1649341135544892  0.2710893254349377
  0.1626385577721489  0.5101936617925098  0.2604062141032759
  0.0193431370578537  0.6689125653385752  0.4988261862446157
  0.3254258218364526  0.3343876185760635  0.5034883074464008
  0.5128884231804688  0.1675494181144994  0.7398952806995968
  0.0131310971910507  0.3275966977358459  0.5030702989207840
  0.3213969416154177  0.6757731721630330  0.5009533080981389
  0.8402134653249034  0.1653526170845333  0.2545347923184790
  0.6653003810006296  0.0003335248285375 -0.0095088350407067
  0.4888157021948894  0.5003416437403994  0.7502600575040488
  0.4873263624686415  0.5026805033153994  0.2631019600896619
  0.4988299146826802  0.1647121033918704  0.2727674099394029
  0.8523873686573626  0.8348169320630995  0.2412238994424482
  0.6613774938615427  0.6702221401910858 -0.0049157201783408
  0.8527053458653265  0.4929054981719309  0.7543783828335731
  0.8428224399658795  0.1690187432292334  0.7458473835916440
  0.6670643757820542  0.3207475618373208  0.5279260679263823
  0.1573025930050483  0.1732889224364355  0.7166226812124992
  0.1595418107123689  0.5073492159745248  0.7306006009610740
  0.6698638569369979  0.3268018061388330 -0.0117514943162701
  0.0072683328747448  0.3267512363839550 -0.0145216166592254
  0.0065070751676859 -0.0034634549986456 -0.0127198673229236
  0.4762449993942011  0.8372554684968622  0.2750512314055679
  0.3148077696139338  0.6720156487988957  0.0089574042342576
  0.8561967108160905  0.8350998664008247  0.7511926804435409
  0.6635218926533545  0.0055731051101099  0.5157710745861698
  0.0141388283759651 -0.0040365228369028  0.4959910255889965
  0.4773522641627475  0.8407983576810218  0.7356573190801332
  0.3197056768711314 -0.0012074789987741 -0.0034786515705667
  0.8498666125230139  0.4929674396965483  0.2473506540931855
  0.6707657210646112  0.6786923866614711  0.5119023874697077
  0.3177270051533995  0.3318364263326699  0.0043373660759396
 
  0.00000000E+00  0.00000000E+00  0.00000000E+00
  0.00000000E+00  0.00000000E+00  0.00000000E+00
  0.00000000E+00  0.00000000E+00  0.00000000E+00
  0.00000000E+00  0.00000000E+00  0.00000000E+00
  0.00000000E+00  0.00000000E+00  0.00000000E+00
  0.00000000E+00  0.00000000E+00  0.00000000E+00
  0.00000000E+00  0.00000000E+00  0.00000000E+00
  0.00000000E+00  0.00000000E+00  0.00000000E+00
  0.00000000E+00  0.00000000E+00  0.00000000E+00
  0.00000000E+00  0.00000000E+00  0.00000000E+00
  0.00000000E+00  0.00000000E+00  0.00000000E+00
  0.00000000E+00  0.00000000E+00  0.00000000E+00
  0.00000000E+00  0.00000000E+00  0.00000000E+00
  0.00000000E+00  0.00000000E+00  0.00000000E+00
  0.00000000E+00  0.00000000E+00  0.00000000E+00
  0.00000000E+00  0.00000000E+00  0.00000000E+00
  0.00000000E+00  0.00000000E+00  0.00000000E+00
  0.00000000E+00  0.00000000E+00  0.00000000E+00
  0.00000000E+00  0.00000000E+00  0.00000000E+00
  0.00000000E+00  0.00000000E+00  0.00000000E+00
  0.00000000E+00  0.00000000E+00  0.00000000E+00
  0.00000000E+00  0.00000000E+00  0.00000000E+00
  0.00000000E+00  0.00000000E+00  0.00000000E+00
  0.00000000E+00  0.00000000E+00  0.00000000E+00
  0.00000000E+00  0.00000000E+00  0.00000000E+00
  0.00000000E+00  0.00000000E+00  0.00000000E+00
  0.00000000E+00  0.00000000E+00  0.00000000E+00
  0.00000000E+00  0.00000000E+00  0.00000000E+00
  0.00000000E+00  0.00000000E+00  0.00000000E+00
  0.00000000E+00  0.00000000E+00  0.00000000E+00
  0.00000000E+00  0.00000000E+00  0.00000000E+00
  0.00000000E+00  0.00000000E+00  0.00000000E+00
  0.00000000E+00  0.00000000E+00  0.00000000E+00
  0.00000000E+00  0.00000000E+00  0.00000000E+00
  0.00000000E+00  0.00000000E+00  0.00000000E+00
  0.00000000E+00  0.00000000E+00  0.00000000E+00
