title                                   
    1.000000000000000     
     9.2258398999535771   -0.0670278796904886   -0.0133964208287608
    -0.0671279599015332    9.2213392775874912    0.0032638222542719
    -0.0086751198367990    0.0024196676751766    6.1756968504553358
   Cr   Mo   Ti   V    W 
    11     4    15     3     3
Direct
  0.1594031214497964  0.8393990455994644  0.7518947864701385
  0.6689306952102940  0.3357397888798278  0.4957502344906250
  0.3410037625016747  0.6742440179570075  0.4954139081353913
  0.8216360384722368  0.4988721049356938  0.7490908555282777
  0.0008149834050352  0.0030993932993611  0.5142156506879125
  0.8321972307946434  0.1597867563708841  0.7638824927261277
  0.5029759233338377  0.4907870827566709  0.2643778063171446
 -0.0014811332711961  0.0052303240392112 -0.0041059108970776
  0.6680284264191511  0.6606403777765584  0.5041528003377912
  0.6684860800308003  0.0018244695079900 -0.0098901385080469
  0.6738598179954016  0.3359307786628385 -0.0140044819040260
  0.4994773971694527  0.8321849224534613  0.2578110820936179
  0.8259614430761316  0.4990061205101162  0.2582200434620605
  0.5042586991847424  0.1711784917972559  0.7436652250941767
  0.3317272558098032 -0.0047838719355169 -0.0053519179141684
  0.5109748447938351  0.1713406756064831  0.2366500690146528
  0.3389513956918961  0.6662995246986029  0.0044740017053311
  0.6644190046466967  0.0041726181033377  0.5164458475038971
  0.8379147435744118  0.8385034540098656  0.7643381188649284
 -0.0173166343432935  0.3335970991281740  0.5095487370738996
  0.1744755413062661  0.5133686180929544  0.7195698766264842
  0.1608918517288313  0.1545757530130268  0.7405483479159024
  0.5084346844417914  0.4988732392614338  0.7223195891344485
  0.6629748064498266  0.6565827889331751  0.0168120272054031
 -0.0093881295914420  0.3357294265023168 -0.0146671561983304
  0.3389634961158757  0.3381539257925602 -0.0016092344607960
  0.1599177310027993  0.8339689280857915  0.2653468044061499
  0.1712988713717408  0.5075854211935149  0.2701495903478581
  0.8255659970053385  0.1614902092801075  0.2377678937263063
  0.8423909051779053  0.8417828208541206  0.2587967045591390
  0.3412417617147361  0.3314946382657713  0.4735096179956027
  0.3362462244212729 -0.0054287559150017  0.5013371910628817
 -0.0087033313351137  0.6644129880792536  0.5161759734294872
 -0.0014935690632609  0.6641697208838161 -0.0005450419835892
  0.1620950012724924  0.1573086961869720  0.2481377153171242
  0.5028650620355883  0.8288784073329016  0.7497708906332756
 
  0.00000000E+00  0.00000000E+00  0.00000000E+00
  0.00000000E+00  0.00000000E+00  0.00000000E+00
  0.00000000E+00  0.00000000E+00  0.00000000E+00
  0.00000000E+00  0.00000000E+00  0.00000000E+00
  0.00000000E+00  0.00000000E+00  0.00000000E+00
  0.00000000E+00  0.00000000E+00  0.00000000E+00
  0.00000000E+00  0.00000000E+00  0.00000000E+00
  0.00000000E+00  0.00000000E+00  0.00000000E+00
  0.00000000E+00  0.00000000E+00  0.00000000E+00
  0.00000000E+00  0.00000000E+00  0.00000000E+00
  0.00000000E+00  0.00000000E+00  0.00000000E+00
  0.00000000E+00  0.00000000E+00  0.00000000E+00
  0.00000000E+00  0.00000000E+00  0.00000000E+00
  0.00000000E+00  0.00000000E+00  0.00000000E+00
  0.00000000E+00  0.00000000E+00  0.00000000E+00
  0.00000000E+00  0.00000000E+00  0.00000000E+00
  0.00000000E+00  0.00000000E+00  0.00000000E+00
  0.00000000E+00  0.00000000E+00  0.00000000E+00
  0.00000000E+00  0.00000000E+00  0.00000000E+00
  0.00000000E+00  0.00000000E+00  0.00000000E+00
  0.00000000E+00  0.00000000E+00  0.00000000E+00
  0.00000000E+00  0.00000000E+00  0.00000000E+00
  0.00000000E+00  0.00000000E+00  0.00000000E+00
  0.00000000E+00  0.00000000E+00  0.00000000E+00
  0.00000000E+00  0.00000000E+00  0.00000000E+00
  0.00000000E+00  0.00000000E+00  0.00000000E+00
  0.00000000E+00  0.00000000E+00  0.00000000E+00
  0.00000000E+00  0.00000000E+00  0.00000000E+00
  0.00000000E+00  0.00000000E+00  0.00000000E+00
  0.00000000E+00  0.00000000E+00  0.00000000E+00
  0.00000000E+00  0.00000000E+00  0.00000000E+00
  0.00000000E+00  0.00000000E+00  0.00000000E+00
  0.00000000E+00  0.00000000E+00  0.00000000E+00
  0.00000000E+00  0.00000000E+00  0.00000000E+00
  0.00000000E+00  0.00000000E+00  0.00000000E+00
  0.00000000E+00  0.00000000E+00  0.00000000E+00
