title                                   
    1.000000000000000     
     9.7337094860094524    0.1191346546388676    0.0049756247640888
     0.1186815654310999    9.7534159175316546    0.0149009341226868
     0.0031018605015059    0.0100271322460432    6.4936105289108488
   Hf   Ti   V    W 
     9     9     9     9
Direct
  0.4965691005704053  0.8298160431936538  0.7481190633762712
  0.3332641488049456  0.3308966960733897  0.0073457475214004
  0.5089310691658001  0.5025392795853949  0.7424501440879862
  0.6803757532317948  0.6641012921511342  0.0273223034526890
  0.6705951614361918 -0.0096650553270341  0.4924176614583399
  0.8311287885072540  0.1773802680507491  0.2451904187467243
  0.0149653569898866  0.3466016728252455  0.0017551356141494
  0.1700063634571876  0.8386369254504111  0.7504319290149657
  0.8272058744000060  0.1804113431201263  0.7491630653751968
  0.1651893619689135  0.1545442947971275  0.7337149008020851
  0.8445623069504404  0.8388193904121534  0.7731512115509510
  0.0029840601728324 -0.0110257740720785  0.4645184430080231
  0.6277890431597510  0.3199519069521951  0.4663194505066520
  0.0097023366563415 -0.0052080501604324  0.0351170935501059
 -0.0035803798248658  0.6682826846681995  0.4938953323352597
  0.3266439496143969  0.3297148396117661  0.4978099155583698
  0.8295037260195937  0.4877219357326623  0.2896293879781950
  0.8307555614327089  0.4976841976203648  0.7333681132775075
  0.1740721202020518  0.1565131676090227  0.2698502874672145
  0.4930999156417973  0.1526131125482243  0.7617770967578877
  0.0258345938005585  0.3523387212909429  0.5077270360255464
  0.6686436565938630  0.6766111697682637  0.4671628878771212
  0.8400077296576437  0.8331523164999112  0.2222083095347323
  0.6399223549689814  0.3271213017412886  0.0274038115416237
  0.4954129767395685  0.1506717127979206  0.2315661834088364
  0.1775983181400077  0.8300515842990056  0.2488935741405655
  0.4922185112958267  0.5127556361067700  0.2554548428053272
  0.4933323288710817  0.8345550922055754  0.2441894768822091
  0.0028529454620156  0.6660637779797610  0.0092228344822104
  0.1689233725145168  0.5126263980552744  0.7464475940661230
  0.3331761901204309  0.6640923135028133  0.0129879047673951
  0.1674828515540299  0.5114995779190840  0.2600036834941434
  0.3287333428504319  0.6636915125968579  0.4889931359955942
  0.3339620629027826  0.0086202684594589  0.0081509692811338
  0.6615817509607239 -0.0005797167150948 -0.0004002440681848
  0.3365533950101056  0.0063981626498923  0.4866412983256501
 
  0.00000000E+00  0.00000000E+00  0.00000000E+00
  0.00000000E+00  0.00000000E+00  0.00000000E+00
  0.00000000E+00  0.00000000E+00  0.00000000E+00
  0.00000000E+00  0.00000000E+00  0.00000000E+00
  0.00000000E+00  0.00000000E+00  0.00000000E+00
  0.00000000E+00  0.00000000E+00  0.00000000E+00
  0.00000000E+00  0.00000000E+00  0.00000000E+00
  0.00000000E+00  0.00000000E+00  0.00000000E+00
  0.00000000E+00  0.00000000E+00  0.00000000E+00
  0.00000000E+00  0.00000000E+00  0.00000000E+00
  0.00000000E+00  0.00000000E+00  0.00000000E+00
  0.00000000E+00  0.00000000E+00  0.00000000E+00
  0.00000000E+00  0.00000000E+00  0.00000000E+00
  0.00000000E+00  0.00000000E+00  0.00000000E+00
  0.00000000E+00  0.00000000E+00  0.00000000E+00
  0.00000000E+00  0.00000000E+00  0.00000000E+00
  0.00000000E+00  0.00000000E+00  0.00000000E+00
  0.00000000E+00  0.00000000E+00  0.00000000E+00
  0.00000000E+00  0.00000000E+00  0.00000000E+00
  0.00000000E+00  0.00000000E+00  0.00000000E+00
  0.00000000E+00  0.00000000E+00  0.00000000E+00
  0.00000000E+00  0.00000000E+00  0.00000000E+00
  0.00000000E+00  0.00000000E+00  0.00000000E+00
  0.00000000E+00  0.00000000E+00  0.00000000E+00
  0.00000000E+00  0.00000000E+00  0.00000000E+00
  0.00000000E+00  0.00000000E+00  0.00000000E+00
  0.00000000E+00  0.00000000E+00  0.00000000E+00
  0.00000000E+00  0.00000000E+00  0.00000000E+00
  0.00000000E+00  0.00000000E+00  0.00000000E+00
  0.00000000E+00  0.00000000E+00  0.00000000E+00
  0.00000000E+00  0.00000000E+00  0.00000000E+00
  0.00000000E+00  0.00000000E+00  0.00000000E+00
  0.00000000E+00  0.00000000E+00  0.00000000E+00
  0.00000000E+00  0.00000000E+00  0.00000000E+00
  0.00000000E+00  0.00000000E+00  0.00000000E+00
  0.00000000E+00  0.00000000E+00  0.00000000E+00
