title                                   
    1.000000000000000     
     9.8129155420244025    0.0242992909228022    0.0343541478786715
     0.0242935318431181    9.7769304706178861   -0.0349840022464041
     0.0228935228006726   -0.0232887997247568    6.5266209591289552
   Hf   Ta   V    W 
     9     9     9     9
Direct
  0.6721602989007962  0.3254728999259688  0.0090409021061518
  0.8395681715023208  0.8239428308680368  0.2437437554630066
 -0.0213777837982380  0.3379126934367752  0.5057086388606382
  0.1606418069295989  0.1631630568066806  0.2438652233833575
  0.6715932604566052  0.0094168562753904  0.5056404064279820
  0.5054395334222882  0.5071732930385685  0.7525566578707646
  0.5019585334268585  0.8220476264211233  0.2483350144788036
  0.6668750850015163  0.0050965012239438 -0.0120611740043390
  0.1662424840064783  0.1679270564994482  0.7555690617418491
  0.1667129576656305  0.8335123857631721  0.2450799260245099
  0.1588273289083736  0.5086569457179171  0.2416011249233676
  0.3439818047086350 -0.0057904492814061 -0.0135655333044677
 -0.0078403853441973 -0.0030736926308399  0.5110713321344047
  0.3261270209844849  0.6696393260133710  0.5079858866868373
  0.1608991159511733  0.5062289536810148  0.7626544002140969
  0.3444773415315557  0.3358651165361335  0.0135024807387218
  0.3391937061542054  0.3398068964837022  0.4921557279247956
  0.8316925080908935  0.5105758342126253  0.2488740547059125
 -0.0195437548966843  0.3374844870055244 -0.0046009014811203
  0.4976714664458889  0.8223850419406529  0.7420483441630471
  0.0047899089370360  0.6669353475796335 -0.0133214651940219
  0.8560670915291704  0.1564717788725616  0.2363220561786169
  0.8252230550766271  0.5147454331068877  0.7555901599849840
  0.6631560787234255  0.3245409244192784  0.4988262088595581
  0.3201060241317009  0.6750444715391070 -0.0089513186953470
  0.1642281550381847  0.8328017664028380  0.7535525561234596
  0.8443488354849829  0.8180822183491310  0.7518581858472821
  0.8416020706144531  0.1667482719548961  0.7570394834355558
  0.6701289948972482  0.6653500553989186  0.5103241754583249
  0.3397144155804895 -0.0030780558486728  0.5048397662997227
  0.5064223207095084  0.5053785663866980  0.2609907230601850
  0.4927292171339631  0.1718989067221539  0.7427536406367922
  0.4922214867940479  0.1650139809548980  0.2567018894788873
  0.6743905285797647  0.6620828093857135 -0.0080078440382988
 -0.0024359649791356 -0.0068185358445649 -0.0110998692775742
  0.0020072817003495  0.6673584006827190  0.5133763227835536
 
  0.00000000E+00  0.00000000E+00  0.00000000E+00
  0.00000000E+00  0.00000000E+00  0.00000000E+00
  0.00000000E+00  0.00000000E+00  0.00000000E+00
  0.00000000E+00  0.00000000E+00  0.00000000E+00
  0.00000000E+00  0.00000000E+00  0.00000000E+00
  0.00000000E+00  0.00000000E+00  0.00000000E+00
  0.00000000E+00  0.00000000E+00  0.00000000E+00
  0.00000000E+00  0.00000000E+00  0.00000000E+00
  0.00000000E+00  0.00000000E+00  0.00000000E+00
  0.00000000E+00  0.00000000E+00  0.00000000E+00
  0.00000000E+00  0.00000000E+00  0.00000000E+00
  0.00000000E+00  0.00000000E+00  0.00000000E+00
  0.00000000E+00  0.00000000E+00  0.00000000E+00
  0.00000000E+00  0.00000000E+00  0.00000000E+00
  0.00000000E+00  0.00000000E+00  0.00000000E+00
  0.00000000E+00  0.00000000E+00  0.00000000E+00
  0.00000000E+00  0.00000000E+00  0.00000000E+00
  0.00000000E+00  0.00000000E+00  0.00000000E+00
  0.00000000E+00  0.00000000E+00  0.00000000E+00
  0.00000000E+00  0.00000000E+00  0.00000000E+00
  0.00000000E+00  0.00000000E+00  0.00000000E+00
  0.00000000E+00  0.00000000E+00  0.00000000E+00
  0.00000000E+00  0.00000000E+00  0.00000000E+00
  0.00000000E+00  0.00000000E+00  0.00000000E+00
  0.00000000E+00  0.00000000E+00  0.00000000E+00
  0.00000000E+00  0.00000000E+00  0.00000000E+00
  0.00000000E+00  0.00000000E+00  0.00000000E+00
  0.00000000E+00  0.00000000E+00  0.00000000E+00
  0.00000000E+00  0.00000000E+00  0.00000000E+00
  0.00000000E+00  0.00000000E+00  0.00000000E+00
  0.00000000E+00  0.00000000E+00  0.00000000E+00
  0.00000000E+00  0.00000000E+00  0.00000000E+00
  0.00000000E+00  0.00000000E+00  0.00000000E+00
  0.00000000E+00  0.00000000E+00  0.00000000E+00
  0.00000000E+00  0.00000000E+00  0.00000000E+00
  0.00000000E+00  0.00000000E+00  0.00000000E+00
