title                                   
    1.000000000000000     
     9.3815453490923613   -0.0224794226858927    0.0388236483423494
    -0.0226044601861499    9.3790606126803269   -0.0718583217802881
     0.0263329779171730   -0.0481038354579416    6.3697497687102116
   Cr   Nb   Ti   V    Zr
     2     6    12    15     1
Direct
  0.6625038731084775  0.0041814500123673  0.4949304890942509
  0.3307413196444409  0.6670527171806835  0.5051654195444030
  0.6646106104663483  0.0043886543438937  0.0019379984481258
  0.6661395522019965  0.6687670199131751  0.0004119427374246
  0.1686247576228899  0.8396020993572910  0.7286402071033576
  0.1662047429862867  0.4934737626145877  0.7444769953929220
  0.1580816486740558  0.4984949653370179  0.2591211509353794
  0.8364364225600590  0.4880542627732705  0.7499647010192793
  0.8347756082862684  0.4885925860332549  0.2562772778005634
  0.8372982550985956  0.1592137911583886  0.7320578424929474
  0.3345089102763810  0.0076176172303537  0.0159473663131918
  0.3407990019221034  0.3258840502735098 -0.0015552695449154
  0.8329774777342300  0.8464749244200896  0.2703624941870728
 -0.0067468633401640  0.6798032504443500 -0.0037925793846719
  0.3391438022744351  0.3190331901831855  0.4940663774813354
  0.4947016188665925  0.8418486080597323  0.7221808586797390
  0.1594528885150008  0.1621889248137164  0.7445711984043275
  0.6553085524499646  0.3260387698289424 -0.0034278341601358
  0.6754142474066956  0.6671321106839619  0.5242214798983202
  0.5011555136844396  0.5073890221389099  0.2852906740518094
  0.0008988223096735  0.0000291391973418  0.0083661942487079
  0.5045770374365515  0.8405761432300236  0.2818168826562721
  0.0055016845499998  0.3254943356427594  0.4823699482378964
  0.5195886131694055  0.1575280056143402  0.2732075655487956
  0.0059985264866023  0.0016594408017745  0.4782407306774604
  0.1544055428452195  0.8430529799890077  0.2654111685442850
  0.0013790558140746  0.3199813223405845  0.0093410518227738
  0.4932381830691056  0.5032879255398673  0.7268107936140420
  0.8373923006543886  0.1678137310084084  0.2561525040610904
  0.5137971879414412  0.1506789394323230  0.7180114933845846
  0.8336893796073799  0.8503684994932998  0.7392098562202720
 -0.0041426016211843  0.6727141891632997  0.5084794371185855
  0.3363563079482569  0.0054605347553647  0.4692264953584901
  0.1516323364679542  0.1624516438552742  0.2434432697674433
  0.6601708147038393  0.3286360669791080  0.5082638953752140
  0.3333848681781938  0.6750353261565439  0.0107999228693612
 
  0.00000000E+00  0.00000000E+00  0.00000000E+00
  0.00000000E+00  0.00000000E+00  0.00000000E+00
  0.00000000E+00  0.00000000E+00  0.00000000E+00
  0.00000000E+00  0.00000000E+00  0.00000000E+00
  0.00000000E+00  0.00000000E+00  0.00000000E+00
  0.00000000E+00  0.00000000E+00  0.00000000E+00
  0.00000000E+00  0.00000000E+00  0.00000000E+00
  0.00000000E+00  0.00000000E+00  0.00000000E+00
  0.00000000E+00  0.00000000E+00  0.00000000E+00
  0.00000000E+00  0.00000000E+00  0.00000000E+00
  0.00000000E+00  0.00000000E+00  0.00000000E+00
  0.00000000E+00  0.00000000E+00  0.00000000E+00
  0.00000000E+00  0.00000000E+00  0.00000000E+00
  0.00000000E+00  0.00000000E+00  0.00000000E+00
  0.00000000E+00  0.00000000E+00  0.00000000E+00
  0.00000000E+00  0.00000000E+00  0.00000000E+00
  0.00000000E+00  0.00000000E+00  0.00000000E+00
  0.00000000E+00  0.00000000E+00  0.00000000E+00
  0.00000000E+00  0.00000000E+00  0.00000000E+00
  0.00000000E+00  0.00000000E+00  0.00000000E+00
  0.00000000E+00  0.00000000E+00  0.00000000E+00
  0.00000000E+00  0.00000000E+00  0.00000000E+00
  0.00000000E+00  0.00000000E+00  0.00000000E+00
  0.00000000E+00  0.00000000E+00  0.00000000E+00
  0.00000000E+00  0.00000000E+00  0.00000000E+00
  0.00000000E+00  0.00000000E+00  0.00000000E+00
  0.00000000E+00  0.00000000E+00  0.00000000E+00
  0.00000000E+00  0.00000000E+00  0.00000000E+00
  0.00000000E+00  0.00000000E+00  0.00000000E+00
  0.00000000E+00  0.00000000E+00  0.00000000E+00
  0.00000000E+00  0.00000000E+00  0.00000000E+00
  0.00000000E+00  0.00000000E+00  0.00000000E+00
  0.00000000E+00  0.00000000E+00  0.00000000E+00
  0.00000000E+00  0.00000000E+00  0.00000000E+00
  0.00000000E+00  0.00000000E+00  0.00000000E+00
  0.00000000E+00  0.00000000E+00  0.00000000E+00
