title                                   
    1.000000000000000     
     9.1639305513135501    0.0071251177241804    0.0082352342553321
     0.0071132080084598    9.1719664771823535   -0.0089565330212006
     0.0054725185982828   -0.0059581798472185    6.1077048962738232
   Cr   Mo   Nb
    18    10     8
Direct
  0.1644032688441509  0.1743327252844588  0.7515940549630968
  0.0023832801067232  0.0063448445844041 -0.0008881438007125
  0.6671950557253187  0.3327487800140350 -0.0039287430570375
  0.6619356742539821  0.0058404625011357  0.4960091794913428
  0.4944584489193614  0.8356175854538084  0.2498032165401324
  0.1658781448482871  0.4991253984352748  0.2409198208496576
  0.5000737551410347  0.1645971863114431  0.2504057218683016
  0.1727744799962687  0.8307678970719650  0.2433808681951005
  0.0034459998325658  0.3376217511219292 -0.0069271865974311
  0.0039490894369527  0.3367759046060762  0.5073527883988921
  0.0062812241359873  0.6561767555492826  0.0061735113164085
  0.8336558973056153  0.1723583632188736  0.7527079308018884
  0.4945446940495760  0.4946721953023906  0.7481318785111883
  0.1669334730485259  0.4940617832209170  0.7524390194325482
  0.3308991573238478  0.3365139671164584  0.5038128296087689
  0.8390998912655470  0.4945288559174520  0.2462664880854027
  0.3341179374846416  0.0011983852607656  0.0066090182554972
  0.3278001634051127  0.6622422069088861  0.0078289173602169
  0.6651725235395034  0.6631948919784193  0.4962838180247080
  0.6652587562968744  0.3327048522495610  0.5013840786332705
  0.8353446124240544  0.8356670920426654  0.2475824149482335
  0.4950727491945986  0.4945681409432890  0.2491636576467977
  0.3308652721326463  0.3366475582299913 -0.0075697889644408
  0.6621834902514396  0.0054117160001551  0.0052897501186780
  0.8393991963475745  0.4908622788236879  0.7554237476435884
  0.3357780358090000  0.0022443144190825  0.4931971860747691
  0.3304975600707674  0.6601511098406952  0.4955028116548897
  0.4983644918204945  0.1695023789889957  0.7488577739352673
  0.8332644527671661  0.1746950892101460  0.2435474034615387
  0.6651253009009683  0.6590264256738981  0.0051796721083305
  0.1686860878532957  0.1723309510487153  0.2449258302397318
  0.1686294991384120  0.8322203863292811  0.7668917780203920
  0.8342357073714389  0.8374348625264552  0.7546751956595803
  0.4958500561929155  0.8345066482494518  0.7533276578764729
  0.0012912421372460  0.0059374764390285  0.5034909669268649
  0.0051513306281045  0.6573687791269255  0.4911548757680654
 
  0.00000000E+00  0.00000000E+00  0.00000000E+00
  0.00000000E+00  0.00000000E+00  0.00000000E+00
  0.00000000E+00  0.00000000E+00  0.00000000E+00
  0.00000000E+00  0.00000000E+00  0.00000000E+00
  0.00000000E+00  0.00000000E+00  0.00000000E+00
  0.00000000E+00  0.00000000E+00  0.00000000E+00
  0.00000000E+00  0.00000000E+00  0.00000000E+00
  0.00000000E+00  0.00000000E+00  0.00000000E+00
  0.00000000E+00  0.00000000E+00  0.00000000E+00
  0.00000000E+00  0.00000000E+00  0.00000000E+00
  0.00000000E+00  0.00000000E+00  0.00000000E+00
  0.00000000E+00  0.00000000E+00  0.00000000E+00
  0.00000000E+00  0.00000000E+00  0.00000000E+00
  0.00000000E+00  0.00000000E+00  0.00000000E+00
  0.00000000E+00  0.00000000E+00  0.00000000E+00
  0.00000000E+00  0.00000000E+00  0.00000000E+00
  0.00000000E+00  0.00000000E+00  0.00000000E+00
  0.00000000E+00  0.00000000E+00  0.00000000E+00
  0.00000000E+00  0.00000000E+00  0.00000000E+00
  0.00000000E+00  0.00000000E+00  0.00000000E+00
  0.00000000E+00  0.00000000E+00  0.00000000E+00
  0.00000000E+00  0.00000000E+00  0.00000000E+00
  0.00000000E+00  0.00000000E+00  0.00000000E+00
  0.00000000E+00  0.00000000E+00  0.00000000E+00
  0.00000000E+00  0.00000000E+00  0.00000000E+00
  0.00000000E+00  0.00000000E+00  0.00000000E+00
  0.00000000E+00  0.00000000E+00  0.00000000E+00
  0.00000000E+00  0.00000000E+00  0.00000000E+00
  0.00000000E+00  0.00000000E+00  0.00000000E+00
  0.00000000E+00  0.00000000E+00  0.00000000E+00
  0.00000000E+00  0.00000000E+00  0.00000000E+00
  0.00000000E+00  0.00000000E+00  0.00000000E+00
  0.00000000E+00  0.00000000E+00  0.00000000E+00
  0.00000000E+00  0.00000000E+00  0.00000000E+00
  0.00000000E+00  0.00000000E+00  0.00000000E+00
  0.00000000E+00  0.00000000E+00  0.00000000E+00
