title                                   
    1.000000000000000     
     9.4225753417433395   -0.0022990377152234   -0.0018066818681060
    -0.0022753494955200    9.4022644514808977   -0.0241037612948723
    -0.0011941593687055   -0.0160544862277538    6.2871584506019831
   Hf   Mo   Nb   V    W 
     3    11     3    15     4
Direct
  0.4927434383443093  0.4958694870969906  0.7467996639601838
  0.6802643485910512  0.6703541015513367  0.4988047663046382
  0.6704326650298335  0.3322070991510415  0.0163234977848992
  0.3296240726451580  0.3309349612186640  0.0083965639572179
 -0.0041132287558535  0.3362248210496702  0.4967592597707212
 -0.0039911774340534  0.3343569090388147  0.0021329520211375
  0.3276664707172175  0.6673640342163130  0.4906961488308305
 -0.0003069043964168  0.6674307977468615  0.0025726197068146
  0.1634887129643556  0.5007808439656768  0.7456657148685286
  0.3294764039765041  0.6690050960136339  0.0033112379152733
  0.3358828062197172  0.0005981305237569  0.0010410498944146
  0.6711077337135458  0.0025557502316529  0.0024235402401940
  0.4909874458556289  0.4987477387859338  0.2537036542353125
  0.5023603699969397  0.8374362220720915  0.7519756666081329
  0.1622739693558145  0.1686083310987665  0.7482300837632435
  0.1609618973921890  0.8330094297380567  0.7491426755995126
  0.3357888828132130  0.0021431008728226  0.4968453404620896
 -0.0044371189551592 -0.0001942171302853  0.0040125641783934
  0.8356096718479139  0.1575103239979012  0.2596934243302225
  0.8427694062318714  0.8398058419102357  0.2418845216700631
  0.4984553274649001  0.1626977992164574  0.2585912812163587
 -0.0083187126387895 -0.0028712114723939  0.4943456868763361
  0.4971442920562125  0.1666186441752236  0.7472377252842093
  0.6661782493199413  0.3216109905954508  0.4942967056068728
  0.8496783176151220  0.5007572074098183  0.2504886404014234
  0.3281582179547147  0.3297420741251220  0.4923718785775852
  0.6693336057501970  0.0012289686478311  0.4993297558385885
  0.8399673253006661  0.8391635728217305  0.7584850091281542
  0.1630035262379924  0.5005180903624585  0.2486904954363746
  0.1649140244432162  0.8290230424330582  0.2434587253685042
 -0.0013535797559443  0.6671478780214453  0.4949247040701902
  0.8438998036848521  0.5033033051882705  0.7551613359400027
  0.1616534709044170  0.1676312997750318  0.2492314269735778
  0.8324175740882787  0.1613821942483135  0.7440437409564417
  0.5018249998451615  0.8374933526689320  0.2454255200104035
  0.6744536915752821  0.6698039886333136  0.0035024222131531
 
  0.00000000E+00  0.00000000E+00  0.00000000E+00
  0.00000000E+00  0.00000000E+00  0.00000000E+00
  0.00000000E+00  0.00000000E+00  0.00000000E+00
  0.00000000E+00  0.00000000E+00  0.00000000E+00
  0.00000000E+00  0.00000000E+00  0.00000000E+00
  0.00000000E+00  0.00000000E+00  0.00000000E+00
  0.00000000E+00  0.00000000E+00  0.00000000E+00
  0.00000000E+00  0.00000000E+00  0.00000000E+00
  0.00000000E+00  0.00000000E+00  0.00000000E+00
  0.00000000E+00  0.00000000E+00  0.00000000E+00
  0.00000000E+00  0.00000000E+00  0.00000000E+00
  0.00000000E+00  0.00000000E+00  0.00000000E+00
  0.00000000E+00  0.00000000E+00  0.00000000E+00
  0.00000000E+00  0.00000000E+00  0.00000000E+00
  0.00000000E+00  0.00000000E+00  0.00000000E+00
  0.00000000E+00  0.00000000E+00  0.00000000E+00
  0.00000000E+00  0.00000000E+00  0.00000000E+00
  0.00000000E+00  0.00000000E+00  0.00000000E+00
  0.00000000E+00  0.00000000E+00  0.00000000E+00
  0.00000000E+00  0.00000000E+00  0.00000000E+00
  0.00000000E+00  0.00000000E+00  0.00000000E+00
  0.00000000E+00  0.00000000E+00  0.00000000E+00
  0.00000000E+00  0.00000000E+00  0.00000000E+00
  0.00000000E+00  0.00000000E+00  0.00000000E+00
  0.00000000E+00  0.00000000E+00  0.00000000E+00
  0.00000000E+00  0.00000000E+00  0.00000000E+00
  0.00000000E+00  0.00000000E+00  0.00000000E+00
  0.00000000E+00  0.00000000E+00  0.00000000E+00
  0.00000000E+00  0.00000000E+00  0.00000000E+00
  0.00000000E+00  0.00000000E+00  0.00000000E+00
  0.00000000E+00  0.00000000E+00  0.00000000E+00
  0.00000000E+00  0.00000000E+00  0.00000000E+00
  0.00000000E+00  0.00000000E+00  0.00000000E+00
  0.00000000E+00  0.00000000E+00  0.00000000E+00
  0.00000000E+00  0.00000000E+00  0.00000000E+00
  0.00000000E+00  0.00000000E+00  0.00000000E+00
