title                                   
    1.000000000000000     
     9.8592247130966992    0.0172923592307343    0.0276616614177139
     0.0173081260315761    9.9718689844427200   -0.0074748096060104
     0.0183198108568528   -0.0050048200050905    6.6560612616905424
   Nb   Ti   V    Zr
    11    14     4     7
Direct
  0.0128997106985997 -0.0066476120729381  0.0261477386669167
  0.1671624216320159  0.5048593456681847  0.2651487565182782
  0.8373216776395571  0.5032155717787534  0.7448736126575120
  0.6446601185505517  0.0012274037654027 -0.0020892856450459
  0.4982351110896741  0.4786512443781662  0.7629624338207877
  0.3392106834266477  0.3355144875514837  0.0227257794958941
  0.6683505534549181  0.3397038986352384  0.0086984906391598
  0.3379932849704554 -0.0098904968580391 -0.0063997955577520
  0.0037759686743516  0.6575811222849548  0.4956782287497980
 -0.0161765125945322  0.3424121829624481  0.4890383460427359
  0.0010910227567494  0.6553117511999389  0.0053085752235828
  0.1768875040964950  0.8324006751112623  0.2742920951655010
  0.6394716368545121  0.0083799980139732  0.4960018245213071
  0.5225197589339854  0.5163587294959219  0.2467378818871389
  0.3602870244427740  0.3444565094191163  0.4807394835618261
  0.6503456471065370  0.6629248249072377  0.5322782402497412
  0.4945767090461292  0.8335982921234451  0.2611742607673156
  0.1620215135145777  0.8381025320969562  0.7290522274293697
  0.6630196897575367  0.3348512414596067  0.4872490375735423
  0.4908684004108064  0.1681738287731310  0.7526017575412635
  0.1667045928988277  0.4959626481520814  0.7383927034145578
  0.8125644574362361  0.1635250692661273  0.2370723153317369
 -0.0065382996838751  0.0010173307136488  0.4596229082911145
  0.6640641955513490  0.6594405611301651 -0.0293493575197213
  0.3451002656468484  0.6660696340468463  0.5192636785716165
  0.3577515747661675 -0.0103614120184227  0.5124338403439319
  0.4904344980597243  0.8567550057051579  0.7454514996931038
  0.8263973953235569  0.5064118776298412  0.2512745325809584
  0.5056699811859037  0.1644744916024496  0.2381807203123116
 -0.0001647533793198  0.3387194263453313  0.0145857785727506
  0.8199608152442370  0.8232484120276452  0.2469191723322670
  0.8370170981350203  0.8376023519172529  0.7470124481700734
  0.3359868315321101  0.6720772741803552 -0.0097623565382999
  0.8307220190104193  0.1587211052237860  0.7480218579978573
  0.1734480876787562  0.1646152267555265  0.7383857457953672
  0.1863593161316968  0.1605354666279641  0.2702748233415003
 
  0.00000000E+00  0.00000000E+00  0.00000000E+00
  0.00000000E+00  0.00000000E+00  0.00000000E+00
  0.00000000E+00  0.00000000E+00  0.00000000E+00
  0.00000000E+00  0.00000000E+00  0.00000000E+00
  0.00000000E+00  0.00000000E+00  0.00000000E+00
  0.00000000E+00  0.00000000E+00  0.00000000E+00
  0.00000000E+00  0.00000000E+00  0.00000000E+00
  0.00000000E+00  0.00000000E+00  0.00000000E+00
  0.00000000E+00  0.00000000E+00  0.00000000E+00
  0.00000000E+00  0.00000000E+00  0.00000000E+00
  0.00000000E+00  0.00000000E+00  0.00000000E+00
  0.00000000E+00  0.00000000E+00  0.00000000E+00
  0.00000000E+00  0.00000000E+00  0.00000000E+00
  0.00000000E+00  0.00000000E+00  0.00000000E+00
  0.00000000E+00  0.00000000E+00  0.00000000E+00
  0.00000000E+00  0.00000000E+00  0.00000000E+00
  0.00000000E+00  0.00000000E+00  0.00000000E+00
  0.00000000E+00  0.00000000E+00  0.00000000E+00
  0.00000000E+00  0.00000000E+00  0.00000000E+00
  0.00000000E+00  0.00000000E+00  0.00000000E+00
  0.00000000E+00  0.00000000E+00  0.00000000E+00
  0.00000000E+00  0.00000000E+00  0.00000000E+00
  0.00000000E+00  0.00000000E+00  0.00000000E+00
  0.00000000E+00  0.00000000E+00  0.00000000E+00
  0.00000000E+00  0.00000000E+00  0.00000000E+00
  0.00000000E+00  0.00000000E+00  0.00000000E+00
  0.00000000E+00  0.00000000E+00  0.00000000E+00
  0.00000000E+00  0.00000000E+00  0.00000000E+00
  0.00000000E+00  0.00000000E+00  0.00000000E+00
  0.00000000E+00  0.00000000E+00  0.00000000E+00
  0.00000000E+00  0.00000000E+00  0.00000000E+00
  0.00000000E+00  0.00000000E+00  0.00000000E+00
  0.00000000E+00  0.00000000E+00  0.00000000E+00
  0.00000000E+00  0.00000000E+00  0.00000000E+00
  0.00000000E+00  0.00000000E+00  0.00000000E+00
  0.00000000E+00  0.00000000E+00  0.00000000E+00
