title                                   
    1.000000000000000     
     9.7886444051081050    0.0164873587833001   -0.0030977884771618
     0.0164917370492324    9.8265771370698687    0.0025610259259031
    -0.0020474239520500    0.0017393655698821    6.5033923822148649
   Nb   Ta   Ti   W    Zr
    11     4     3    15     3
Direct
  0.3274360659642369  0.3386406184326517  0.0005738694229406
  0.4988390855897750  0.8306720690602181  0.2519505022217069
  0.3318766244075933  0.6647493299476561  0.4995823849643470
  0.3282441924687143 -0.0032727858433595  0.5013660709277618
  0.0005438082083589  0.6670491034152842 -0.0003075004203199
  0.8297592381593017  0.4962336178045256  0.2498703137861795
  0.3291569347798067 -0.0054034517521109 -0.0024596493712452
  0.0086681660711935  0.3368769829805084  0.4978380792508865
  0.6676162531147657  0.3462629674235116  0.0004805305441049
  0.1648451432183173  0.1631148311373614  0.7488781979190055
  0.6675202269343066  0.6677789674054601  0.5021948040601789
  0.0051544331522490  0.3382594159411388  0.0029089820021599
  0.5034576524226803  0.1681494018222326  0.7449870680742670
  0.8334617692162753  0.1640039800644360  0.2554509225904660
  0.6688700360289987 -0.0160061419653129 -0.0018572484173478
  0.6685068029193543  0.6703013946995252 -0.0023216255634192
  0.3256887485367119  0.3399351843441041  0.4965331523867927
  0.4996937631992462  0.5006611739462352  0.7497969375691610
  0.1620666302990594  0.1627706987249063  0.2484834314658125
  0.1668994084267754  0.8359314093734277  0.2451014534607337
  0.6651918084451833  0.3423871064013256  0.5001309772701622
  0.8272833700495997  0.4971439506848655  0.7498068316277307
  0.6681973083456056 -0.0101812307317394  0.5026018226936158
  0.1715197973714672  0.5008058181578946  0.2446943680615969
  0.1742095934728067  0.5025516014017681  0.7559204551551562
  0.3331372357679921  0.6668085870777398 -0.0003886310909501
  0.8343569024602059  0.8376708004907609  0.7499146709480342
  0.0016012606603331 -0.0055133730368998  0.0032997469457479
  0.8345581282553085  0.8389267802734647  0.2509993501179292
  0.0019889229120945 -0.0053940113651137  0.4978866661795088
  0.4995188664762416  0.5017503188650377  0.2497682142003618
  0.1671591536815480  0.8354643433670761  0.7547445556027294
  0.4982248760107004  0.8289796517528824  0.7491056419698088
  0.8322048787604317  0.1662517539239868  0.7482957658680723
  0.5020619121107720  0.1683890596325421  0.2528860590848341
  0.0004810021019885  0.6672500761420083  0.5012828284914895
 
  0.00000000E+00  0.00000000E+00  0.00000000E+00
  0.00000000E+00  0.00000000E+00  0.00000000E+00
  0.00000000E+00  0.00000000E+00  0.00000000E+00
  0.00000000E+00  0.00000000E+00  0.00000000E+00
  0.00000000E+00  0.00000000E+00  0.00000000E+00
  0.00000000E+00  0.00000000E+00  0.00000000E+00
  0.00000000E+00  0.00000000E+00  0.00000000E+00
  0.00000000E+00  0.00000000E+00  0.00000000E+00
  0.00000000E+00  0.00000000E+00  0.00000000E+00
  0.00000000E+00  0.00000000E+00  0.00000000E+00
  0.00000000E+00  0.00000000E+00  0.00000000E+00
  0.00000000E+00  0.00000000E+00  0.00000000E+00
  0.00000000E+00  0.00000000E+00  0.00000000E+00
  0.00000000E+00  0.00000000E+00  0.00000000E+00
  0.00000000E+00  0.00000000E+00  0.00000000E+00
  0.00000000E+00  0.00000000E+00  0.00000000E+00
  0.00000000E+00  0.00000000E+00  0.00000000E+00
  0.00000000E+00  0.00000000E+00  0.00000000E+00
  0.00000000E+00  0.00000000E+00  0.00000000E+00
  0.00000000E+00  0.00000000E+00  0.00000000E+00
  0.00000000E+00  0.00000000E+00  0.00000000E+00
  0.00000000E+00  0.00000000E+00  0.00000000E+00
  0.00000000E+00  0.00000000E+00  0.00000000E+00
  0.00000000E+00  0.00000000E+00  0.00000000E+00
  0.00000000E+00  0.00000000E+00  0.00000000E+00
  0.00000000E+00  0.00000000E+00  0.00000000E+00
  0.00000000E+00  0.00000000E+00  0.00000000E+00
  0.00000000E+00  0.00000000E+00  0.00000000E+00
  0.00000000E+00  0.00000000E+00  0.00000000E+00
  0.00000000E+00  0.00000000E+00  0.00000000E+00
  0.00000000E+00  0.00000000E+00  0.00000000E+00
  0.00000000E+00  0.00000000E+00  0.00000000E+00
  0.00000000E+00  0.00000000E+00  0.00000000E+00
  0.00000000E+00  0.00000000E+00  0.00000000E+00
  0.00000000E+00  0.00000000E+00  0.00000000E+00
  0.00000000E+00  0.00000000E+00  0.00000000E+00
