title                                   
    1.000000000000000     
     9.9768660127531401    0.1691031056362416    0.0129082946377694
     0.1689600591563105    9.9277381137537173    0.0051025570855306
     0.0091274467750131    0.0029254553391768    6.8125553395175711
   Hf   Nb   Ti   V    Zr
     7     7     7     8     7
Direct
  0.6815001315322760  0.3266606317089792 -0.0074016868332915
 -0.0106366235492171  0.6623585071917203 -0.0279861079374440
  0.0133563085164311  0.6729603592688008  0.5268978109700737
  0.3393270652567540  0.0039618604315606 -0.0113029411981339
  0.1786883868408010  0.8160624028811331  0.2203262250913424
  0.6506113727390940  0.3546613888593753  0.5077865821835577
  0.3193422351114866 -0.0010179117158014  0.5175894712839104
  0.8248670220679036  0.8338488203296863  0.2576572711703220
  0.5195707680244743  0.8342687394974847  0.7382599778648574
  0.8245627536592264  0.5097830950939374  0.7290698532663850
  0.4967167835551548  0.1695247660330451  0.7373152350031993
  0.4949626193978505  0.5089843056750623  0.2263621833576641
  0.5092805284795886  0.8251065925415362  0.2542861239276619
  0.3387653055885309  0.3356987545881298 -0.0151036077540187
  0.6681306350328774 -0.0006937018502879  0.0154342451230003
  0.7971733412578657  0.1409145049648851  0.7087569514243062
  0.1839823877305082  0.8156737062198101  0.7971449930475284
  0.0014902838089916  0.3344107398201552 -0.0174541508081849
  0.6641594733584200  0.6698801412526435 -0.0161695300223369
  0.8081895424524033  0.8412682729633305  0.7263512695435974
  0.1778952329754569  0.1889443260393322  0.2440378237327184
  0.3618523024748581  0.6567724660692247 -0.0150038556634068
  0.4886141181466239  0.5022559069592568  0.7765835429167699
  0.3309407000085837  0.3370169358130389  0.5332209979038092
  0.1843860626759785  0.4841466690637407  0.7631872391953838
  0.6576103226055108  0.6724587322653739  0.5013379621334925
  0.8115660213961869  0.1444140248084519  0.2785377002090189
  0.1862767093922208  0.1974427480283355  0.7649193237775015
  0.6621678319005129 -0.0127710657633451  0.4629837027967246
 -0.0086677837742406  0.0208701011624936 -0.0043968300358670
  0.4942156285552357  0.1720171126315066  0.2655231249167955
  0.8312311250189764  0.5201341735824568  0.2651650493054175
  0.3413309721637783  0.6563152199548152  0.5224774006930737
 -0.0032492754652163  0.3191420951178037  0.5189925815992144
  0.0046003277129761 -0.0020704247809333  0.5043980157375600
  0.1751893833511366  0.4885950032932632  0.2502160520777957
 
  0.00000000E+00  0.00000000E+00  0.00000000E+00
  0.00000000E+00  0.00000000E+00  0.00000000E+00
  0.00000000E+00  0.00000000E+00  0.00000000E+00
  0.00000000E+00  0.00000000E+00  0.00000000E+00
  0.00000000E+00  0.00000000E+00  0.00000000E+00
  0.00000000E+00  0.00000000E+00  0.00000000E+00
  0.00000000E+00  0.00000000E+00  0.00000000E+00
  0.00000000E+00  0.00000000E+00  0.00000000E+00
  0.00000000E+00  0.00000000E+00  0.00000000E+00
  0.00000000E+00  0.00000000E+00  0.00000000E+00
  0.00000000E+00  0.00000000E+00  0.00000000E+00
  0.00000000E+00  0.00000000E+00  0.00000000E+00
  0.00000000E+00  0.00000000E+00  0.00000000E+00
  0.00000000E+00  0.00000000E+00  0.00000000E+00
  0.00000000E+00  0.00000000E+00  0.00000000E+00
  0.00000000E+00  0.00000000E+00  0.00000000E+00
  0.00000000E+00  0.00000000E+00  0.00000000E+00
  0.00000000E+00  0.00000000E+00  0.00000000E+00
  0.00000000E+00  0.00000000E+00  0.00000000E+00
  0.00000000E+00  0.00000000E+00  0.00000000E+00
  0.00000000E+00  0.00000000E+00  0.00000000E+00
  0.00000000E+00  0.00000000E+00  0.00000000E+00
  0.00000000E+00  0.00000000E+00  0.00000000E+00
  0.00000000E+00  0.00000000E+00  0.00000000E+00
  0.00000000E+00  0.00000000E+00  0.00000000E+00
  0.00000000E+00  0.00000000E+00  0.00000000E+00
  0.00000000E+00  0.00000000E+00  0.00000000E+00
  0.00000000E+00  0.00000000E+00  0.00000000E+00
  0.00000000E+00  0.00000000E+00  0.00000000E+00
  0.00000000E+00  0.00000000E+00  0.00000000E+00
  0.00000000E+00  0.00000000E+00  0.00000000E+00
  0.00000000E+00  0.00000000E+00  0.00000000E+00
  0.00000000E+00  0.00000000E+00  0.00000000E+00
  0.00000000E+00  0.00000000E+00  0.00000000E+00
  0.00000000E+00  0.00000000E+00  0.00000000E+00
  0.00000000E+00  0.00000000E+00  0.00000000E+00
