title                                   
    1.000000000000000     
    10.3159510660380107    0.0557344962848249    0.0143152377567659
     0.0574494029165709   10.3447746590263723   -0.0440490394175720
     0.0097955975775761   -0.0296825717294830    6.9439544126940582
   Hf   Nb   Ti   Zr
    14     4    11     7
Direct
  0.3416332374143853  0.3498249529561326  0.4669977084614766
  0.5318391104362528  0.8434463087941526  0.7335461527258167
  0.5160706078522558  0.8326364419751470  0.2549223615992953
  0.1442304718287542  0.8394125456579737  0.2162858522836184
  0.1681399037339944  0.1847259650872467  0.7513986910373329
  0.8632767899161254  0.2018752601137461  0.7128140560931704
  0.3392430727981467  0.6631742551617333 -0.0046905048560350
  0.4896802763480090  0.1722473565135644  0.7486402533316983
  0.0026947672843473 -0.0185090641099315  0.5305495239459735
  0.6975187666416486  0.0211228087239332 -0.0298496559391928
  0.6682702062790105  0.3396562557284520  0.0083110917427544
  0.8416770579001097  0.5134357498654397  0.7307842923432645
  0.6635138408909581  0.3376002995210102  0.4773407439751660
  0.8259039932120124  0.8294070564428956  0.2501895299150012
  0.5081851981383353  0.5194189696778263  0.2400729739125118
  0.4932739670644544  0.4779402507241894  0.7600715124169647
  0.0130305512496380  0.3578203673028674  0.4666389461084595
  0.1635867321160735  0.5055116710682733  0.2522672319093932
  0.6575386793841611  0.6458981807699201 -0.0097394510729455
  0.6444321880361106  0.6432539438653181  0.5176984669159379
  0.3435166731178140  0.3548983404527266  0.0296810559072982
  0.8225301710904717  0.5261055977466781  0.2842351246037915
  0.8308227735092196  0.8103717601413835  0.7575209007020067
  0.0129901611268606  0.6718023904611202  0.4795449701218541
 -0.0137905819552114  0.6402241656969391  0.0382875651513572
  0.8544453707055634  0.1517473749182514  0.2728518124338236
  0.6998139560706272  0.0168091085083889  0.5300762895081126
 -0.0166157051540545  0.0077679045208063 -0.0340141596902624
  0.1259737974462701  0.7998619160789224  0.7877936938469349
  0.3129595352196721 -0.0219133574857596  0.5185234365296015
  0.3227124041431441 -0.0276892124737409 -0.0357309392641301
  0.1646766138638712  0.1625592064611097  0.2415358384417495
  0.5031125194652227  0.1405867851103400  0.2531526270342714
  0.3303792142758807  0.6710712961917487  0.5102882534256535
 -0.0242526685426098  0.3427377955115395  0.0327966960518772
  0.1569863470924766  0.4931593523196553  0.7592070583463997
 
  0.00000000E+00  0.00000000E+00  0.00000000E+00
  0.00000000E+00  0.00000000E+00  0.00000000E+00
  0.00000000E+00  0.00000000E+00  0.00000000E+00
  0.00000000E+00  0.00000000E+00  0.00000000E+00
  0.00000000E+00  0.00000000E+00  0.00000000E+00
  0.00000000E+00  0.00000000E+00  0.00000000E+00
  0.00000000E+00  0.00000000E+00  0.00000000E+00
  0.00000000E+00  0.00000000E+00  0.00000000E+00
  0.00000000E+00  0.00000000E+00  0.00000000E+00
  0.00000000E+00  0.00000000E+00  0.00000000E+00
  0.00000000E+00  0.00000000E+00  0.00000000E+00
  0.00000000E+00  0.00000000E+00  0.00000000E+00
  0.00000000E+00  0.00000000E+00  0.00000000E+00
  0.00000000E+00  0.00000000E+00  0.00000000E+00
  0.00000000E+00  0.00000000E+00  0.00000000E+00
  0.00000000E+00  0.00000000E+00  0.00000000E+00
  0.00000000E+00  0.00000000E+00  0.00000000E+00
  0.00000000E+00  0.00000000E+00  0.00000000E+00
  0.00000000E+00  0.00000000E+00  0.00000000E+00
  0.00000000E+00  0.00000000E+00  0.00000000E+00
  0.00000000E+00  0.00000000E+00  0.00000000E+00
  0.00000000E+00  0.00000000E+00  0.00000000E+00
  0.00000000E+00  0.00000000E+00  0.00000000E+00
  0.00000000E+00  0.00000000E+00  0.00000000E+00
  0.00000000E+00  0.00000000E+00  0.00000000E+00
  0.00000000E+00  0.00000000E+00  0.00000000E+00
  0.00000000E+00  0.00000000E+00  0.00000000E+00
  0.00000000E+00  0.00000000E+00  0.00000000E+00
  0.00000000E+00  0.00000000E+00  0.00000000E+00
  0.00000000E+00  0.00000000E+00  0.00000000E+00
  0.00000000E+00  0.00000000E+00  0.00000000E+00
  0.00000000E+00  0.00000000E+00  0.00000000E+00
  0.00000000E+00  0.00000000E+00  0.00000000E+00
  0.00000000E+00  0.00000000E+00  0.00000000E+00
  0.00000000E+00  0.00000000E+00  0.00000000E+00
  0.00000000E+00  0.00000000E+00  0.00000000E+00
