title                                   
    1.000000000000000     
     9.9444672285904705    0.0275782155535613    0.0271937622290211
     0.0276487676087181    9.8788106414081422   -0.0036308089391516
     0.0181777169471400   -0.0022121326473955    6.7546294572781713
   Ti   W    Zr
    12    12    12
Direct
  0.3144305905241166 -0.0003118646192743  0.0479340078461897
  0.0091878925763286  0.3321613107268436  0.5157952604147731
  0.3153345156490278  0.0002513089961742  0.4763611138728632
 -0.0077999386708462 -0.0078451367655210 -0.0059503129852038
 -0.0060776068542322  0.6680969637355101 -0.0285768652989173
  0.5128613937214677  0.8399498538852052  0.2624512929814233
  0.1521932970973363  0.8145437384329051  0.2124175814964776
  0.1672487928547531  0.1671333485942769  0.7838820175000946
  0.6948693711572367 -0.0071261914734043 -0.0069261937414233
  0.4972397021218860  0.1699916126797655  0.2516321673128067
  0.1636591592558306  0.4920962966818737  0.2201603281538604
  0.3260082820909178  0.6562467587727450 -0.0247846079592000
  0.6707836991400210  0.3394006114874141  0.5170550767858839
  0.0011508743234437  0.3330356579372358 -0.0183825983521923
  0.5023005528871352  0.4995147848071959  0.7354309226036967
  0.8316574184975446  0.8300070919712609  0.7436617745481816
  0.8438354791246108  0.1753698717203591  0.7518600913189337
  0.3272957464033664  0.3346413553024577  0.0005028177116543
  0.1644299170448575  0.4872411122175351  0.7730476245699688
  0.1724985717476731  0.8404819173607503  0.7884104105068103
  0.6744368630108378  0.6718871171535858  0.5055263554413955
  0.8347340539340836  0.8261210680315164  0.2487660349054037
  0.1618813809421574  0.1798725399948360  0.2323254368254976
  0.8324182571827183  0.4969964567146479  0.7315115658988043
  0.0082126260143581 -0.0013616712002393  0.5079187924450634
  0.6821628161042035  0.0019118547280497  0.5060352161367785
  0.8406562614929760  0.4990420120752065  0.2521600659267752
  0.4990767880677545  0.4996060226483947  0.2540551199566188
  0.4922762578688214  0.1606468386598590  0.7636660388550018
  0.6711271537101494  0.6692556140634580 -0.0124548671682372
  0.6654458122366630  0.3384636836259815 -0.0192711174237506
  0.8397752402783845  0.1776777300704021  0.2477277862590099
  0.0050189200639651  0.6678185657311977  0.5125065361507133
  0.4927436520463385  0.8444408726716868  0.7551458870751904
  0.3240779598890657  0.6716662941800285  0.5120749634024397
  0.3228482464650479  0.3310745984000804  0.5063242760266140
 
  0.00000000E+00  0.00000000E+00  0.00000000E+00
  0.00000000E+00  0.00000000E+00  0.00000000E+00
  0.00000000E+00  0.00000000E+00  0.00000000E+00
  0.00000000E+00  0.00000000E+00  0.00000000E+00
  0.00000000E+00  0.00000000E+00  0.00000000E+00
  0.00000000E+00  0.00000000E+00  0.00000000E+00
  0.00000000E+00  0.00000000E+00  0.00000000E+00
  0.00000000E+00  0.00000000E+00  0.00000000E+00
  0.00000000E+00  0.00000000E+00  0.00000000E+00
  0.00000000E+00  0.00000000E+00  0.00000000E+00
  0.00000000E+00  0.00000000E+00  0.00000000E+00
  0.00000000E+00  0.00000000E+00  0.00000000E+00
  0.00000000E+00  0.00000000E+00  0.00000000E+00
  0.00000000E+00  0.00000000E+00  0.00000000E+00
  0.00000000E+00  0.00000000E+00  0.00000000E+00
  0.00000000E+00  0.00000000E+00  0.00000000E+00
  0.00000000E+00  0.00000000E+00  0.00000000E+00
  0.00000000E+00  0.00000000E+00  0.00000000E+00
  0.00000000E+00  0.00000000E+00  0.00000000E+00
  0.00000000E+00  0.00000000E+00  0.00000000E+00
  0.00000000E+00  0.00000000E+00  0.00000000E+00
  0.00000000E+00  0.00000000E+00  0.00000000E+00
  0.00000000E+00  0.00000000E+00  0.00000000E+00
  0.00000000E+00  0.00000000E+00  0.00000000E+00
  0.00000000E+00  0.00000000E+00  0.00000000E+00
  0.00000000E+00  0.00000000E+00  0.00000000E+00
  0.00000000E+00  0.00000000E+00  0.00000000E+00
  0.00000000E+00  0.00000000E+00  0.00000000E+00
  0.00000000E+00  0.00000000E+00  0.00000000E+00
  0.00000000E+00  0.00000000E+00  0.00000000E+00
  0.00000000E+00  0.00000000E+00  0.00000000E+00
  0.00000000E+00  0.00000000E+00  0.00000000E+00
  0.00000000E+00  0.00000000E+00  0.00000000E+00
  0.00000000E+00  0.00000000E+00  0.00000000E+00
  0.00000000E+00  0.00000000E+00  0.00000000E+00
  0.00000000E+00  0.00000000E+00  0.00000000E+00
