title                                   
    1.000000000000000     
    10.1936712993039755    0.0153651524530600    0.0045010454261836
     0.0149510978673605   10.3926169902253864    0.0070096365998188
     0.0031959023951909    0.0046779435186579    6.9904109486590933
   Ta   Zr
    18    18
Direct
  0.6593719910727834  0.3356992562152922  0.4934702703291131
  0.6584240141814540  0.6597652645868493  0.4932648095773829
  0.3329356799544552  0.0094996202111265  0.0338666305753242
  0.8154832131645858  0.8171087084305872  0.7219295815031421
  0.6706062608828065  0.3377184131415631 -0.0038471016054046
  0.5145133453619360  0.4954557222860456  0.2341357065668577
 -0.0088237727111074  0.6623067600818294  0.5335241973630297
  0.1747280822089961  0.1741874507771401  0.7721614222343679
  0.0095051771562188  0.3239638340579055  0.5182147589607105
  0.8243936896910804  0.4920856336739442  0.7380634951502246
  0.6715437688739394  0.6633619999122936 -0.0071585265308521
  0.8289387485500110  0.1926069548509494  0.7404852344746867
  0.5117760466797849  0.8261619140270737  0.2295084265207896
  0.3443592233220111  0.6620987725430619  0.0383750606912578
  0.3301949629860517  0.3300148080649823  0.0252331430625865
  0.0015938307619855  0.3271446894705069 -0.0155444852509836
  0.1586343402134075  0.1729019551588919  0.2389618654885690
  0.5072283968372477  0.1783325659970922  0.2266157301754539
 -0.0062499598371622  0.0073370986877732 -0.0204354361106937
  0.8355149322251394  0.8253904151568069  0.2668036989997808
  0.3333979123742092  0.3274813028417333  0.4854014210509496
  0.1574039440819487  0.8303888472713271  0.2525912526974881
  0.4931470618405492  0.8313940210651403  0.7653709819077105
  0.1837125283663322  0.8313621061135255  0.7645852053940162
  0.3374038920703561  0.0060052725059129  0.4751959669148350
  0.4992514008279887  0.4983850885505941  0.7625679713834448
  0.8364072305408459  0.4962091309649683  0.2543111637094189
 -0.0019131972840616  0.0087107535139825  0.5253641687382532
  0.8382045627968617  0.1779332803007173  0.2531765507948126
  0.3490006131534602  0.6646556572572005  0.4731538668236813
  0.1525092747025630  0.4985226239735803  0.2515390524007008
 -0.0180855570710030  0.6689796813610949 -0.0328534451360129
  0.1732420646233846  0.4959572758423526  0.7623610456412243
  0.4932977326197847  0.1701713213181420  0.7673233890575171
  0.6782925918368293 -0.0028863999450803 -0.0125392042979899
  0.6600559729443259  0.0035881997330930  0.4948221307446050
 
  0.00000000E+00  0.00000000E+00  0.00000000E+00
  0.00000000E+00  0.00000000E+00  0.00000000E+00
  0.00000000E+00  0.00000000E+00  0.00000000E+00
  0.00000000E+00  0.00000000E+00  0.00000000E+00
  0.00000000E+00  0.00000000E+00  0.00000000E+00
  0.00000000E+00  0.00000000E+00  0.00000000E+00
  0.00000000E+00  0.00000000E+00  0.00000000E+00
  0.00000000E+00  0.00000000E+00  0.00000000E+00
  0.00000000E+00  0.00000000E+00  0.00000000E+00
  0.00000000E+00  0.00000000E+00  0.00000000E+00
  0.00000000E+00  0.00000000E+00  0.00000000E+00
  0.00000000E+00  0.00000000E+00  0.00000000E+00
  0.00000000E+00  0.00000000E+00  0.00000000E+00
  0.00000000E+00  0.00000000E+00  0.00000000E+00
  0.00000000E+00  0.00000000E+00  0.00000000E+00
  0.00000000E+00  0.00000000E+00  0.00000000E+00
  0.00000000E+00  0.00000000E+00  0.00000000E+00
  0.00000000E+00  0.00000000E+00  0.00000000E+00
  0.00000000E+00  0.00000000E+00  0.00000000E+00
  0.00000000E+00  0.00000000E+00  0.00000000E+00
  0.00000000E+00  0.00000000E+00  0.00000000E+00
  0.00000000E+00  0.00000000E+00  0.00000000E+00
  0.00000000E+00  0.00000000E+00  0.00000000E+00
  0.00000000E+00  0.00000000E+00  0.00000000E+00
  0.00000000E+00  0.00000000E+00  0.00000000E+00
  0.00000000E+00  0.00000000E+00  0.00000000E+00
  0.00000000E+00  0.00000000E+00  0.00000000E+00
  0.00000000E+00  0.00000000E+00  0.00000000E+00
  0.00000000E+00  0.00000000E+00  0.00000000E+00
  0.00000000E+00  0.00000000E+00  0.00000000E+00
  0.00000000E+00  0.00000000E+00  0.00000000E+00
  0.00000000E+00  0.00000000E+00  0.00000000E+00
  0.00000000E+00  0.00000000E+00  0.00000000E+00
  0.00000000E+00  0.00000000E+00  0.00000000E+00
  0.00000000E+00  0.00000000E+00  0.00000000E+00
  0.00000000E+00  0.00000000E+00  0.00000000E+00
