title                                   
    1.000000000000000     
    10.2743175688271915    0.0493848137347281   -0.0570370609603026
     0.0493859311503609   10.1750986639824745    0.0126400532845670
    -0.0373707436131497    0.0083144727029540    6.8637700021244603
   Hf   Mo   Nb   V    Zr
     4     3    11     3    15
Direct
 -0.0226774140492095  0.3508189188467597  0.0301180984570108
  0.1870925787043411  0.4882348748560745  0.2300528253194254
  0.1748827204442700  0.1718626037826325  0.2632730649067622
  0.8215005577176294  0.5038412334258053  0.7273876681931911
  0.8193799368982975  0.8212459860439336  0.7388662936574294
  0.3341195987811503  0.0034659727639177  0.5169208290344823
  0.6664347399210272  0.6660227726120620  0.4854631193406435
  0.6568143659921688  0.3395283985914248  0.4986761608207835
  0.6776105581380842 -0.0183984374145335  0.5011925981558691
  0.3414774157988705  0.6770256348397574 -0.0141767285752043
  0.5018750081325749  0.5000226997533997  0.7498867721264162
  0.6724480924841463  0.6665653351157226  0.0074127635615246
  0.1812240184801540  0.8366620715511257  0.7495710151287434
  0.1751223477161333  0.1762240239443287  0.7436885332126035
  0.5078139957998565  0.8275568244867902  0.2542219463425186
  0.3371837276443713  0.3314384928181811  0.5256116618306311
  0.4978322887818736  0.1648527771386031  0.7289402501667226
  0.0015052197101981  0.3539009228834718  0.4774460693687521
  0.3481683845955738  0.3100535913533026 -0.0304118023817898
  0.8009389800299093  0.5129782034978178  0.2771020524297250
  0.8036707006462397  0.8149635087178624  0.2668704450303117
  0.6629466211616198  0.3305825350492563 -0.0012169290510435
 -0.0060499319790517  0.6716232038901035  0.4910288052600472
  0.6810291856154835 -0.0115561416900276  0.0008418831815655
  0.3396797822850307  0.0109996623830122 -0.0148475785843096
  0.1672631252753690  0.4937460798729169  0.7711618442769594
  0.4941574747002797  0.1610026851816586  0.2701846471031529
  0.8415998551430940  0.1792286414977419  0.7259596993382658
  0.0008033460888106 -0.0039315790259341 -0.0098500285838965
  0.4930569751077424  0.4972353534224025  0.2412439910393485
 -0.0157243388469188  0.6794461292744631  0.0076816912331514
  0.1900289574157386  0.8491506342038216  0.2533649179421012
  0.3276943914998658  0.6631144912272839  0.5066023504835101
 -0.0003743601119800 -0.0180422849406917  0.5123823757461742
  0.5061770654052090  0.8280663381376812  0.7371648544124749
  0.8332940288720474  0.1704678419078705  0.2801838400759458
 
  0.00000000E+00  0.00000000E+00  0.00000000E+00
  0.00000000E+00  0.00000000E+00  0.00000000E+00
  0.00000000E+00  0.00000000E+00  0.00000000E+00
  0.00000000E+00  0.00000000E+00  0.00000000E+00
  0.00000000E+00  0.00000000E+00  0.00000000E+00
  0.00000000E+00  0.00000000E+00  0.00000000E+00
  0.00000000E+00  0.00000000E+00  0.00000000E+00
  0.00000000E+00  0.00000000E+00  0.00000000E+00
  0.00000000E+00  0.00000000E+00  0.00000000E+00
  0.00000000E+00  0.00000000E+00  0.00000000E+00
  0.00000000E+00  0.00000000E+00  0.00000000E+00
  0.00000000E+00  0.00000000E+00  0.00000000E+00
  0.00000000E+00  0.00000000E+00  0.00000000E+00
  0.00000000E+00  0.00000000E+00  0.00000000E+00
  0.00000000E+00  0.00000000E+00  0.00000000E+00
  0.00000000E+00  0.00000000E+00  0.00000000E+00
  0.00000000E+00  0.00000000E+00  0.00000000E+00
  0.00000000E+00  0.00000000E+00  0.00000000E+00
  0.00000000E+00  0.00000000E+00  0.00000000E+00
  0.00000000E+00  0.00000000E+00  0.00000000E+00
  0.00000000E+00  0.00000000E+00  0.00000000E+00
  0.00000000E+00  0.00000000E+00  0.00000000E+00
  0.00000000E+00  0.00000000E+00  0.00000000E+00
  0.00000000E+00  0.00000000E+00  0.00000000E+00
  0.00000000E+00  0.00000000E+00  0.00000000E+00
  0.00000000E+00  0.00000000E+00  0.00000000E+00
  0.00000000E+00  0.00000000E+00  0.00000000E+00
  0.00000000E+00  0.00000000E+00  0.00000000E+00
  0.00000000E+00  0.00000000E+00  0.00000000E+00
  0.00000000E+00  0.00000000E+00  0.00000000E+00
  0.00000000E+00  0.00000000E+00  0.00000000E+00
  0.00000000E+00  0.00000000E+00  0.00000000E+00
  0.00000000E+00  0.00000000E+00  0.00000000E+00
  0.00000000E+00  0.00000000E+00  0.00000000E+00
  0.00000000E+00  0.00000000E+00  0.00000000E+00
  0.00000000E+00  0.00000000E+00  0.00000000E+00
