title                                   
    1.000000000000000     
     9.9779432223421374    0.0178846105652894   -0.0109493518107318
     0.0157281232039660    9.9314050976078665    0.0111660691233767
    -0.0075515161457490    0.0079017279782038    6.8350611562013075
   Ta   Ti   W    Zr
     4    19     3    10
Direct
  0.8365219354671892  0.5161186186137925  0.7700927648732240
  0.6577985298829474 -0.0114943229046580  0.4552264590001859
  0.4885113983555356  0.4877624441598815  0.7704680123436844
  0.3281334338820109  0.3352955461689284  0.5125630218041778
  0.1969601172985099  0.1577431342180687  0.7479256128480517
  0.6555591406337504  0.6622392023472166  0.5274257512928235
  0.1660262338263559  0.8333586299530082  0.2213340869974406
  0.0209472567376976 -0.0042818712427974  0.4936629446437839
  0.8402446222411176  0.8240474602184946  0.2339009505398243
  0.1727975829209136  0.5042509920837911  0.7891210722137879
  0.4884849430108730  0.1679970900918235  0.2512696081921149
  0.6631367261916085  0.3445572886729764  0.5453207182716305
  0.6490113129207089  0.6805073423025250 -0.0197171405336466
  0.3537833634284099  0.6861833804347069 -0.0083108869330111
  0.6517295126462355 -0.0075494279627742  0.0191322780698040
  0.8141317080687183  0.1432817290640144  0.7157997194127516
  0.4851818826492288  0.8368269584770610  0.2776354904567887
  0.1687459535520947  0.8380906202078904  0.7778988291154778
  0.4930989724928287  0.1626582312481674  0.7437175671468199
  0.6711036700836018  0.3234832437928704 -0.0359176199736156
  0.3496287521152541 -0.0082946195230599  0.0006176755505770
  0.1958673177701730  0.1640264271095335  0.2547885980945678
  0.4958713626036318  0.8582941982521782  0.7143625418912284
 -0.0021942146750626  0.6703031517903675 -0.0047426353926567
  0.3262171892731121  0.0019770099743119  0.4957886745240744
  0.3414352446461147  0.3209086553065910 -0.0023563556537697
  0.5059720528354256  0.4892488693993500  0.2442911672069103
  0.8255081370137572  0.5069894852902498  0.2419524166934617
  0.8292087658152646  0.8394085099258856  0.7464108572629976
  0.1732688236849089  0.4983772181487789  0.2248070796836385
 -0.0005938768044131  0.0184092315109253  0.0024359144137663
  0.3265249268830456  0.6644075893010184  0.5146963337765447
  0.0110444082667186  0.6707062387356869  0.5045139899475491
 -0.0044305785454287  0.3198957566424802 -0.0157308112364344
  0.0119001051315879  0.3284855602332580  0.5158031402432074
  0.8128632876955764  0.1757804279574569  0.2738121732122394
 
  0.00000000E+00  0.00000000E+00  0.00000000E+00
  0.00000000E+00  0.00000000E+00  0.00000000E+00
  0.00000000E+00  0.00000000E+00  0.00000000E+00
  0.00000000E+00  0.00000000E+00  0.00000000E+00
  0.00000000E+00  0.00000000E+00  0.00000000E+00
  0.00000000E+00  0.00000000E+00  0.00000000E+00
  0.00000000E+00  0.00000000E+00  0.00000000E+00
  0.00000000E+00  0.00000000E+00  0.00000000E+00
  0.00000000E+00  0.00000000E+00  0.00000000E+00
  0.00000000E+00  0.00000000E+00  0.00000000E+00
  0.00000000E+00  0.00000000E+00  0.00000000E+00
  0.00000000E+00  0.00000000E+00  0.00000000E+00
  0.00000000E+00  0.00000000E+00  0.00000000E+00
  0.00000000E+00  0.00000000E+00  0.00000000E+00
  0.00000000E+00  0.00000000E+00  0.00000000E+00
  0.00000000E+00  0.00000000E+00  0.00000000E+00
  0.00000000E+00  0.00000000E+00  0.00000000E+00
  0.00000000E+00  0.00000000E+00  0.00000000E+00
  0.00000000E+00  0.00000000E+00  0.00000000E+00
  0.00000000E+00  0.00000000E+00  0.00000000E+00
  0.00000000E+00  0.00000000E+00  0.00000000E+00
  0.00000000E+00  0.00000000E+00  0.00000000E+00
  0.00000000E+00  0.00000000E+00  0.00000000E+00
  0.00000000E+00  0.00000000E+00  0.00000000E+00
  0.00000000E+00  0.00000000E+00  0.00000000E+00
  0.00000000E+00  0.00000000E+00  0.00000000E+00
  0.00000000E+00  0.00000000E+00  0.00000000E+00
  0.00000000E+00  0.00000000E+00  0.00000000E+00
  0.00000000E+00  0.00000000E+00  0.00000000E+00
  0.00000000E+00  0.00000000E+00  0.00000000E+00
  0.00000000E+00  0.00000000E+00  0.00000000E+00
  0.00000000E+00  0.00000000E+00  0.00000000E+00
  0.00000000E+00  0.00000000E+00  0.00000000E+00
  0.00000000E+00  0.00000000E+00  0.00000000E+00
  0.00000000E+00  0.00000000E+00  0.00000000E+00
  0.00000000E+00  0.00000000E+00  0.00000000E+00
