title                                   
    1.000000000000000     
     9.6441721009963928    0.0784726295410485    0.0009909806763191
     0.0786078943330290    9.6696415954461941   -0.0491468256437864
     0.0006993071953028   -0.0325846809645840    6.4255191587683154
   Cr   Hf   Mo   Nb   W 
     7     8     7     7     7
Direct
  0.3328266783456725 -0.0000341607952922  0.4985691867065407
  0.8238218800009289  0.1732169991754061  0.2557624778477828
  0.8392664886336442  0.4854638342374474  0.2351270974918089
  0.3249313077355678  0.6676399504454166  0.5112653868205890
  0.3286264538218071  0.6632824377876301 -0.0131660410355286
 -0.0054310106559740  0.3423262604221700  0.0103893440487192
  0.0006712876853847  0.0031088907266087  0.4951461449065048
  0.4930139956891082  0.8331974963377711  0.2498944727428614
  0.1598521287533094  0.1599557468071195  0.7297451218265625
  0.0036659480929759  0.6618861795256391  0.4999483607190925
 -0.0011651320852804  0.0140664272409514  0.0171099858734768
  0.8293178197923670  0.8409104060259162  0.2547000458732321
  0.6765120667241376  0.6517646586380387  0.5136355816578335
  0.4992701768889710  0.5057090439774019  0.2464709099743966
  0.3314635249636593  0.3315818217368757 -0.0084679628340895
  0.6644833176152981  0.0075867439831675  0.0008941170699675
  0.6708411329030509  0.3296063275944972  0.0059157795430009
  0.1670549979734394  0.1658478526953190  0.2570707228357882
  0.3300041605109227  0.0006250336314897 -0.0024825225669069
  0.5001493926156260  0.1585741714965290  0.7439893935160562
  0.6702460573999396  0.3268503437196280  0.4966260950751651
  0.5005118270606145  0.5001887657646773  0.7556846089847520
  0.1767224542808348  0.8352511881696398  0.2577314431486726
  0.8336795731019505  0.8391872673601039  0.7614317239867802
  0.8283575053346566  0.1704317755260346  0.7465253548122031
  0.3330867095383518  0.3336758266593513  0.4932810645605132
  0.8405701498707779  0.4881822279846372  0.7690181929823453
 -0.0048181469191667  0.3369642220785585  0.4785206112206692
  0.4909357981803842  0.8316142089591562  0.7512929336404395
  0.1696581909306537  0.5060685319236451  0.2392401228452104
  0.1706243789669319  0.5064996536721125  0.7490980466316344
  0.5033534514312711  0.1616365439398225  0.2522814716868552
  0.6716039555585984  0.6602080576151237 -0.0059013542179483
  0.0091971187121085  0.6649060457191296  0.0001841617329724
  0.6610805957049228  0.0076910544186626  0.5061895733538586
  0.1760137648425529  0.8343281647996147  0.7472783465381878
 
  0.00000000E+00  0.00000000E+00  0.00000000E+00
  0.00000000E+00  0.00000000E+00  0.00000000E+00
  0.00000000E+00  0.00000000E+00  0.00000000E+00
  0.00000000E+00  0.00000000E+00  0.00000000E+00
  0.00000000E+00  0.00000000E+00  0.00000000E+00
  0.00000000E+00  0.00000000E+00  0.00000000E+00
  0.00000000E+00  0.00000000E+00  0.00000000E+00
  0.00000000E+00  0.00000000E+00  0.00000000E+00
  0.00000000E+00  0.00000000E+00  0.00000000E+00
  0.00000000E+00  0.00000000E+00  0.00000000E+00
  0.00000000E+00  0.00000000E+00  0.00000000E+00
  0.00000000E+00  0.00000000E+00  0.00000000E+00
  0.00000000E+00  0.00000000E+00  0.00000000E+00
  0.00000000E+00  0.00000000E+00  0.00000000E+00
  0.00000000E+00  0.00000000E+00  0.00000000E+00
  0.00000000E+00  0.00000000E+00  0.00000000E+00
  0.00000000E+00  0.00000000E+00  0.00000000E+00
  0.00000000E+00  0.00000000E+00  0.00000000E+00
  0.00000000E+00  0.00000000E+00  0.00000000E+00
  0.00000000E+00  0.00000000E+00  0.00000000E+00
  0.00000000E+00  0.00000000E+00  0.00000000E+00
  0.00000000E+00  0.00000000E+00  0.00000000E+00
  0.00000000E+00  0.00000000E+00  0.00000000E+00
  0.00000000E+00  0.00000000E+00  0.00000000E+00
  0.00000000E+00  0.00000000E+00  0.00000000E+00
  0.00000000E+00  0.00000000E+00  0.00000000E+00
  0.00000000E+00  0.00000000E+00  0.00000000E+00
  0.00000000E+00  0.00000000E+00  0.00000000E+00
  0.00000000E+00  0.00000000E+00  0.00000000E+00
  0.00000000E+00  0.00000000E+00  0.00000000E+00
  0.00000000E+00  0.00000000E+00  0.00000000E+00
  0.00000000E+00  0.00000000E+00  0.00000000E+00
  0.00000000E+00  0.00000000E+00  0.00000000E+00
  0.00000000E+00  0.00000000E+00  0.00000000E+00
  0.00000000E+00  0.00000000E+00  0.00000000E+00
  0.00000000E+00  0.00000000E+00  0.00000000E+00
