title                                   
    1.000000000000000     
     9.8493326309769902    0.0877124083825325   -0.0701600680370109
     0.0880810680450970    9.8601270237074008   -0.0592597143216274
    -0.0465781036253097   -0.0393790366692527    6.5747240534061762
   Hf   Mo   V    W    Zr
     7     8     7     7     7
Direct
  0.1695729475963202  0.1761628501892178  0.2831545108945290
  0.8056052150281987  0.8427695069341807  0.7627061470190692
  0.0066148647977349  0.6593684037603798 -0.0019280054865123
  0.0049191599401948  0.6579138519909590  0.4945172225807714
  0.5001776834127261  0.5002803801084600  0.7520883961771856
 -0.0066445975981775  0.0140478669045263  0.0078376291773830
 -0.0113639701192429 -0.0018520143870077  0.4949587186501664
  0.3357320738294904  0.6654913164476874  0.0104603069435670
  0.1685099172645299  0.4965188979569886  0.2557945322191371
  0.6559152890419224  0.0131516391577282  0.0043047424704233
  0.3357669890643978  0.3451157797712218  0.4943597090667302
  0.6574570218134335  0.0088214571840716  0.4939132195352031
  0.6583682522918007  0.6607131734133426  0.0001847340463121
 -0.0110560138059950  0.3412031007976979  0.5026930690734799
  0.8338608748926207  0.4906956234668348  0.7504978829656141
  0.3523159928507441 -0.0237455431648251  0.4705660667934351
  0.4985081980828626  0.8260963386465725  0.2488007560586877
  0.8218851504212227  0.1803560786639886  0.2539182706103842
  0.5004187190083524  0.8269920095465587  0.7449303657360825
  0.6778782846712462  0.3290038579351718  0.4897760275636249
  0.1763917870545073  0.5003497065916653  0.7427958638195701
  0.1933356679495847  0.8196945976393655  0.2692889682018908
  0.8322490041964885  0.4880437362875732  0.2414359991470965
  0.5024767002526789  0.5001721884549737  0.2458956603389932
  0.6744572238131464  0.3317087359894151  0.0111421932942424
  0.8227403064753159  0.1752744186721198  0.7488921720889870
  0.3406118544118180  0.6640840814423808  0.4871760909314299
  0.5107248914840554  0.1681930050612220  0.2615543309265781
 -0.0086882510197299  0.3428005585379635  0.0025811098126882
  0.5014948720812717  0.1616152027004872  0.7392633138687708
  0.6660628613364504  0.6570476016032347  0.4926912520289338
  0.1921654725614405  0.8303323038552594  0.7348173338369741
  0.1615811374460299  0.1817448738696090  0.7397669935627015
  0.3405707474439867 -0.0105493457766010  0.0259597680770478
  0.8082948441257860  0.8394200270363421  0.2293945869643785
  0.3310888279027852  0.3409637327112361  0.0138100610044454
 
  0.00000000E+00  0.00000000E+00  0.00000000E+00
  0.00000000E+00  0.00000000E+00  0.00000000E+00
  0.00000000E+00  0.00000000E+00  0.00000000E+00
  0.00000000E+00  0.00000000E+00  0.00000000E+00
  0.00000000E+00  0.00000000E+00  0.00000000E+00
  0.00000000E+00  0.00000000E+00  0.00000000E+00
  0.00000000E+00  0.00000000E+00  0.00000000E+00
  0.00000000E+00  0.00000000E+00  0.00000000E+00
  0.00000000E+00  0.00000000E+00  0.00000000E+00
  0.00000000E+00  0.00000000E+00  0.00000000E+00
  0.00000000E+00  0.00000000E+00  0.00000000E+00
  0.00000000E+00  0.00000000E+00  0.00000000E+00
  0.00000000E+00  0.00000000E+00  0.00000000E+00
  0.00000000E+00  0.00000000E+00  0.00000000E+00
  0.00000000E+00  0.00000000E+00  0.00000000E+00
  0.00000000E+00  0.00000000E+00  0.00000000E+00
  0.00000000E+00  0.00000000E+00  0.00000000E+00
  0.00000000E+00  0.00000000E+00  0.00000000E+00
  0.00000000E+00  0.00000000E+00  0.00000000E+00
  0.00000000E+00  0.00000000E+00  0.00000000E+00
  0.00000000E+00  0.00000000E+00  0.00000000E+00
  0.00000000E+00  0.00000000E+00  0.00000000E+00
  0.00000000E+00  0.00000000E+00  0.00000000E+00
  0.00000000E+00  0.00000000E+00  0.00000000E+00
  0.00000000E+00  0.00000000E+00  0.00000000E+00
  0.00000000E+00  0.00000000E+00  0.00000000E+00
  0.00000000E+00  0.00000000E+00  0.00000000E+00
  0.00000000E+00  0.00000000E+00  0.00000000E+00
  0.00000000E+00  0.00000000E+00  0.00000000E+00
  0.00000000E+00  0.00000000E+00  0.00000000E+00
  0.00000000E+00  0.00000000E+00  0.00000000E+00
  0.00000000E+00  0.00000000E+00  0.00000000E+00
  0.00000000E+00  0.00000000E+00  0.00000000E+00
  0.00000000E+00  0.00000000E+00  0.00000000E+00
  0.00000000E+00  0.00000000E+00  0.00000000E+00
  0.00000000E+00  0.00000000E+00  0.00000000E+00
