title                                   
    1.000000000000000     
     9.4717423670244738    0.0137562840653637    0.1040082585763004
     0.0138355732210607    9.4743730883020110   -0.0692950071102622
     0.0693562817669735   -0.0465644188363525    6.3334420942046608
   Cr   Mo   Ti   W 
     4    10    19     3
Direct
  0.4976677996932077  0.1559800589186546  0.2312419747284784
  0.8322430707686951  0.1624186404090928  0.2507465545381082
  0.3422361140144637  0.0111784055172510  0.0148987929091963
 -0.0010158612401742  0.0054220018500856  0.5191267201162909
 -0.0069231364799784  0.6679828970775051  0.0027301689552141
  0.8354642972472998  0.5049584737563748  0.2523654594081785
 -0.0031733087835525  0.3296344996369800  0.4951005081330524
  0.1648004158042594  0.1586630734948662  0.7483011624701407
  0.6693656777493108  0.0023593658165333  0.0058304509398524
  0.5001731607539979  0.8342959720812448  0.2492215763836226
  0.6703041628533281  0.6677871098879030  0.4979571935844008
  0.8368087122819056  0.8343782943594872  0.7477405679164620
  0.3333265237591768  0.6752879952966484  0.5006666337964084
  0.6696422336413309  0.0032890819129636  0.4931563129622664
 -0.0080406990787729  0.0136046409338631 -0.0042216682222810
 -0.0084883519160476  0.3236836535165601  0.0018397380293258
  0.6708644310095864  0.3257487175392327  0.0145681976895316
  0.1666164523325981  0.5052159768995335  0.2534014746670315
  0.3378053276083665  0.3154013138663995  0.5019255653393437
  0.5081630028314016  0.1477903721350972  0.7572472224154236
  0.1584264407939404  0.1585297084115322  0.2570620844696169
  0.1626558609168483  0.5088466605964282  0.7495059563603672
  0.3337506120093224  0.3174807383209506 -0.0059357397689767
  0.4989331068836223  0.8376766177462421  0.7534135659022867
  0.4876431820846013  0.5067329256763227  0.2608971550408372
  0.6654252015615909  0.6687143210461286  0.0032157439406001
  0.8359541331809086  0.8411857639306388  0.2614479965354670
  0.4953141141383091  0.5134893406437669  0.7324697633188538
  0.6667453368842694  0.3222557445141868  0.4688644229770040
  0.8409618545801376  0.4975877908141643  0.7408355295366977
  0.1638773058046895  0.8351631106437432  0.2524277177466563
  0.1732538929856779  0.8337160001788019  0.7599740388042655
  0.3397482432723009  0.0076614929643927  0.4865911533434055
 -0.0007853688585699  0.6704860082934505  0.5041298088909892
  0.3384566272522757  0.6706132983359926  0.0040152703116134
  0.8317994316596725  0.1647799329769779  0.7372409258302689
 
  0.00000000E+00  0.00000000E+00  0.00000000E+00
  0.00000000E+00  0.00000000E+00  0.00000000E+00
  0.00000000E+00  0.00000000E+00  0.00000000E+00
  0.00000000E+00  0.00000000E+00  0.00000000E+00
  0.00000000E+00  0.00000000E+00  0.00000000E+00
  0.00000000E+00  0.00000000E+00  0.00000000E+00
  0.00000000E+00  0.00000000E+00  0.00000000E+00
  0.00000000E+00  0.00000000E+00  0.00000000E+00
  0.00000000E+00  0.00000000E+00  0.00000000E+00
  0.00000000E+00  0.00000000E+00  0.00000000E+00
  0.00000000E+00  0.00000000E+00  0.00000000E+00
  0.00000000E+00  0.00000000E+00  0.00000000E+00
  0.00000000E+00  0.00000000E+00  0.00000000E+00
  0.00000000E+00  0.00000000E+00  0.00000000E+00
  0.00000000E+00  0.00000000E+00  0.00000000E+00
  0.00000000E+00  0.00000000E+00  0.00000000E+00
  0.00000000E+00  0.00000000E+00  0.00000000E+00
  0.00000000E+00  0.00000000E+00  0.00000000E+00
  0.00000000E+00  0.00000000E+00  0.00000000E+00
  0.00000000E+00  0.00000000E+00  0.00000000E+00
  0.00000000E+00  0.00000000E+00  0.00000000E+00
  0.00000000E+00  0.00000000E+00  0.00000000E+00
  0.00000000E+00  0.00000000E+00  0.00000000E+00
  0.00000000E+00  0.00000000E+00  0.00000000E+00
  0.00000000E+00  0.00000000E+00  0.00000000E+00
  0.00000000E+00  0.00000000E+00  0.00000000E+00
  0.00000000E+00  0.00000000E+00  0.00000000E+00
  0.00000000E+00  0.00000000E+00  0.00000000E+00
  0.00000000E+00  0.00000000E+00  0.00000000E+00
  0.00000000E+00  0.00000000E+00  0.00000000E+00
  0.00000000E+00  0.00000000E+00  0.00000000E+00
  0.00000000E+00  0.00000000E+00  0.00000000E+00
  0.00000000E+00  0.00000000E+00  0.00000000E+00
  0.00000000E+00  0.00000000E+00  0.00000000E+00
  0.00000000E+00  0.00000000E+00  0.00000000E+00
  0.00000000E+00  0.00000000E+00  0.00000000E+00
