title                                   
    1.000000000000000     
     9.2770826881564954    0.0449322514363306    0.0140389137062802
     0.0451001716722209    9.2804199026839047   -0.0439965940171076
     0.0092417876007922   -0.0292581532254946    6.2172164160436525
   Mo   Ti   V 
     8    10    18
Direct
  0.8309708469730266  0.1708808196116401  0.2562942620320219
  0.1726911012958567  0.8331349308989546  0.2473147249813789
  0.6643161448464132  0.6700085328820031  0.0018662031909857
  0.0006248335249056  0.3287511983058408 -0.0087253099307330
  0.1705633043986371  0.1674353172850861  0.2495764746669497
  0.3356445537142002  0.3289192923252183  0.5080594645121976
  0.1681872871285170  0.8415764684512813  0.7469914458338152
  0.5004951855153095  0.8402948555870087  0.7544057242393853
  0.3352702870831770  0.6723289611122176  0.5129461428667792
  0.0059868074200795  0.6725224922023199 -0.0104730868757510
  0.0071008555080031  0.6672464568145925  0.5081090205509374
  0.1724703179026711  0.4905753047737881  0.2424333162807600
  0.5000335752898332  0.4909949112711047  0.2426282203557062
  0.6573221101595581  0.6647944991700216  0.5093461661174636
  0.8283701569250628  0.8484250296743626  0.7273489612007452
  0.6637324974656585  0.0118456797384992  0.0063134612702814
  0.8317471848056779  0.4979368277956933  0.2421801323631457
  0.0012291319477436 -0.0003762122913098  0.0018122630976440
  0.8352112363047047  0.1703560318655050  0.7408228622805243
  0.3334974201982108 -0.0008477544739866 -0.0020151363713590
  0.4951667876322213  0.1732006955131353  0.7441853336628776
 -0.0047895966300008  0.3275815347449825  0.5036198653344109
  0.4954267792648004  0.1688435856890788  0.2599381618646927
  0.5009821914537599  0.4928036904087013  0.7731306912089193
  0.8307197220181404  0.4880485091781730  0.7600722070226463
  0.5020112842337595  0.8380684919838371  0.2492662716477706
  0.6579009591997751  0.0050968740390122  0.4903559093010682
  0.3396708496046534  0.3220548256138928 -0.0058528141206240
  0.0030371651062594  0.0042338656591186  0.4864750839705976
  0.6655681893367139  0.3217592137785111 -0.0066303026611995
  0.8213170182097507  0.8308866064822841  0.2594899895146867
  0.6724135101334844  0.3321233734742451  0.5155045891353864
  0.1738633176911598  0.4860404695477004  0.7576875533496404
  0.1679766369285186  0.1720630974909480  0.7424748553579746
  0.3308778471704612  0.6733829430317173 -0.0031202584098188
  0.3323925002392982 -0.0029914196351802  0.4961675511580930
 
  0.00000000E+00  0.00000000E+00  0.00000000E+00
  0.00000000E+00  0.00000000E+00  0.00000000E+00
  0.00000000E+00  0.00000000E+00  0.00000000E+00
  0.00000000E+00  0.00000000E+00  0.00000000E+00
  0.00000000E+00  0.00000000E+00  0.00000000E+00
  0.00000000E+00  0.00000000E+00  0.00000000E+00
  0.00000000E+00  0.00000000E+00  0.00000000E+00
  0.00000000E+00  0.00000000E+00  0.00000000E+00
  0.00000000E+00  0.00000000E+00  0.00000000E+00
  0.00000000E+00  0.00000000E+00  0.00000000E+00
  0.00000000E+00  0.00000000E+00  0.00000000E+00
  0.00000000E+00  0.00000000E+00  0.00000000E+00
  0.00000000E+00  0.00000000E+00  0.00000000E+00
  0.00000000E+00  0.00000000E+00  0.00000000E+00
  0.00000000E+00  0.00000000E+00  0.00000000E+00
  0.00000000E+00  0.00000000E+00  0.00000000E+00
  0.00000000E+00  0.00000000E+00  0.00000000E+00
  0.00000000E+00  0.00000000E+00  0.00000000E+00
  0.00000000E+00  0.00000000E+00  0.00000000E+00
  0.00000000E+00  0.00000000E+00  0.00000000E+00
  0.00000000E+00  0.00000000E+00  0.00000000E+00
  0.00000000E+00  0.00000000E+00  0.00000000E+00
  0.00000000E+00  0.00000000E+00  0.00000000E+00
  0.00000000E+00  0.00000000E+00  0.00000000E+00
  0.00000000E+00  0.00000000E+00  0.00000000E+00
  0.00000000E+00  0.00000000E+00  0.00000000E+00
  0.00000000E+00  0.00000000E+00  0.00000000E+00
  0.00000000E+00  0.00000000E+00  0.00000000E+00
  0.00000000E+00  0.00000000E+00  0.00000000E+00
  0.00000000E+00  0.00000000E+00  0.00000000E+00
  0.00000000E+00  0.00000000E+00  0.00000000E+00
  0.00000000E+00  0.00000000E+00  0.00000000E+00
  0.00000000E+00  0.00000000E+00  0.00000000E+00
  0.00000000E+00  0.00000000E+00  0.00000000E+00
  0.00000000E+00  0.00000000E+00  0.00000000E+00
  0.00000000E+00  0.00000000E+00  0.00000000E+00
