title                                   
    1.000000000000000     
     9.3820583596679956   -0.0061307301227849    0.0173745617677532
    -0.0060907263484364    9.4037170137228436   -0.0110173483945429
     0.0115850703841413   -0.0073549282945692    6.2564747386914190
   Cr   Hf   Mo   Ta   W 
    11     4    15     3     3
Direct
  0.8306113563941953  0.4954433782977176  0.2540041722443524
  0.3317187669295505  0.6635488756569016  0.4989768253568337
  0.6610948063976479  0.0123664539486511  0.5015666889716807
  0.5079394619300969  0.1698831714566321  0.2463706704278514
  0.3349300665958312 -0.0020376444709062 -0.0037370334923132
  0.6643995024053927  0.3295686105977792  0.4963751164705750
  0.1709353535903174  0.5064334703843388  0.2444859821444003
  0.5003903254109510  0.5028394577657683  0.2465221277965091
  0.8275434926244390  0.1676749937495064  0.7491521761946395
  0.3311326675255644  0.6613033371008333  0.0002802772028922
  0.1680880903497645  0.5064093044625624  0.7535030515076733
  0.3346017447798832  0.3416536399382707  0.4941219232681613
  0.3347953860460045  0.0055234213879787  0.4981169171829257
  0.8331886046014176  0.8317295885881063  0.2529028179078517
  0.8316796200978597  0.8340463326182215  0.7457912169496809
  0.0043622296259797  0.0060625402406657 -0.0008861371383069
  0.0127133323539641  0.6564072452336288  0.4964127052390581
  0.5059142605942548  0.1696979811374259  0.7532126291544711
  0.0124944739658585  0.6570587672529412  0.0009717556712677
  0.1716304885649675  0.8260592614470580  0.2447979827008725
  0.3342272203863259  0.3388144420748945  0.0029557040496041
  0.6588571337060538  0.6567305636138437  0.0025246670302490
  0.1717197077859836  0.8271147419998809  0.7537245485894526
  0.1639461298454014  0.1680533101687279  0.7562926139843323
  0.8270383377523679  0.1680197541251090  0.2616496044285899
  0.1650623190521995  0.1674602042003042  0.2438394523738772
  0.6587495383423058  0.6543208666706799  0.4942842708166906
  0.0036957493152049  0.0057275738415097  0.5027434139221419
 -0.0005611598940156  0.3347401514679796  0.4985992559565163
  0.4971400709089439  0.5036271358097841  0.7529778808161571
  0.8298649563971986  0.4966519693866497  0.7428257445531141
 -0.0004070776731336  0.3352511648228838  0.0045613355159396
  0.4975245538012517  0.8281287257317512  0.2461153742789756
  0.6643383405318267  0.3320458598481409  0.0104300338822746
  0.4975271953984428  0.8305657738840770  0.7533700975484914
  0.6611129535597022  0.0110755755597029  0.0001641364925166
 
  0.00000000E+00  0.00000000E+00  0.00000000E+00
  0.00000000E+00  0.00000000E+00  0.00000000E+00
  0.00000000E+00  0.00000000E+00  0.00000000E+00
  0.00000000E+00  0.00000000E+00  0.00000000E+00
  0.00000000E+00  0.00000000E+00  0.00000000E+00
  0.00000000E+00  0.00000000E+00  0.00000000E+00
  0.00000000E+00  0.00000000E+00  0.00000000E+00
  0.00000000E+00  0.00000000E+00  0.00000000E+00
  0.00000000E+00  0.00000000E+00  0.00000000E+00
  0.00000000E+00  0.00000000E+00  0.00000000E+00
  0.00000000E+00  0.00000000E+00  0.00000000E+00
  0.00000000E+00  0.00000000E+00  0.00000000E+00
  0.00000000E+00  0.00000000E+00  0.00000000E+00
  0.00000000E+00  0.00000000E+00  0.00000000E+00
  0.00000000E+00  0.00000000E+00  0.00000000E+00
  0.00000000E+00  0.00000000E+00  0.00000000E+00
  0.00000000E+00  0.00000000E+00  0.00000000E+00
  0.00000000E+00  0.00000000E+00  0.00000000E+00
  0.00000000E+00  0.00000000E+00  0.00000000E+00
  0.00000000E+00  0.00000000E+00  0.00000000E+00
  0.00000000E+00  0.00000000E+00  0.00000000E+00
  0.00000000E+00  0.00000000E+00  0.00000000E+00
  0.00000000E+00  0.00000000E+00  0.00000000E+00
  0.00000000E+00  0.00000000E+00  0.00000000E+00
  0.00000000E+00  0.00000000E+00  0.00000000E+00
  0.00000000E+00  0.00000000E+00  0.00000000E+00
  0.00000000E+00  0.00000000E+00  0.00000000E+00
  0.00000000E+00  0.00000000E+00  0.00000000E+00
  0.00000000E+00  0.00000000E+00  0.00000000E+00
  0.00000000E+00  0.00000000E+00  0.00000000E+00
  0.00000000E+00  0.00000000E+00  0.00000000E+00
  0.00000000E+00  0.00000000E+00  0.00000000E+00
  0.00000000E+00  0.00000000E+00  0.00000000E+00
  0.00000000E+00  0.00000000E+00  0.00000000E+00
  0.00000000E+00  0.00000000E+00  0.00000000E+00
  0.00000000E+00  0.00000000E+00  0.00000000E+00
