title                                   
    1.000000000000000     
     9.6175877308964228    0.0294881874631834    0.0317400946907712
     0.0291419262020043    9.6373360957226275   -0.0109325232846119
     0.0214358486484959   -0.0072976809289370    6.5099424695910919
   Hf   Nb   Ti   V    W 
     6     1    15    12     2
Direct
  0.8181559511203748  0.8105893479165623  0.2213482482482879
  0.6659137741875626 -0.0001475342871080  0.5145896910282244
  0.0101586402348791  0.6783196421089103  0.4915447087391284
  0.1748368347382074  0.1480130332596868  0.7500398230576738
  0.5102282711757919  0.4982912472343855  0.2633595622173552
  0.0061836346723009  0.3466218776415982 -0.0066412801290253
  0.6438580653972980  0.6698317599724362 -0.0274570804571624
  0.8332255296083191  0.1891224087615309  0.2712050199975271
 -0.0213271777265703  0.0056943250303850 -0.0010230739039386
  0.3237944358793808  0.6690705832557539  0.0047214589179420
  0.6678464595530915  0.3156336573584661 -0.0314795977321331
  0.6558985588601561  0.3180445990523581  0.5411459265449499
  0.8281230627287823  0.5068961577819162  0.7308749034210315
  0.3398365732298181  0.3518737702689226 -0.0270832331261619
  0.1731226590636558  0.8398379560920172  0.7631450030417609
  0.6654273879796976  0.0047524351645840 -0.0141651204109511
  0.8274916704104170  0.4996472205777310  0.2513789897005115
  0.3479762273875820  0.3335721494014763  0.5401706837017863
  0.1766856630064162  0.1614106424851229  0.2561137791006382
 -0.0061385913081298 -0.0094353431930233  0.4898828880310793
  0.4908999714089134  0.1705954738202305  0.2381753714357279
  0.1823307671068523  0.4846545300424367  0.2744809783549781
  0.4790227844312447  0.1468765877481587  0.7864900372914190
  0.8288381539160120  0.8160429871635614  0.7673397846438736
  0.0061864675806952  0.6541260882026660 -0.0256847014152067
  0.6507600122211871  0.6835741344407704  0.5238784450785430
  0.8564621465905636  0.1768929623678364  0.7199076119142320
  0.3479164617116948 -0.0230043749247330  0.0206338716605743
  0.5036011324830159  0.5195004048575640  0.7349975354211007
  0.4854488768383399  0.8315950676875873  0.7431036127031562
  0.3480063410515965 -0.0090472491940988  0.4910716882645608
  0.1853608671205286  0.8563639322582054  0.2490746638308493
  0.4897570993906632  0.8319630539233409  0.2641108756342020
  0.1665626452678321  0.5103865750100086  0.7245697228791911
  0.3323936745973075  0.6733663741392015  0.5052032706604410
  0.0051549680845221  0.3384735165735540  0.5009759316538323
 
  0.00000000E+00  0.00000000E+00  0.00000000E+00
  0.00000000E+00  0.00000000E+00  0.00000000E+00
  0.00000000E+00  0.00000000E+00  0.00000000E+00
  0.00000000E+00  0.00000000E+00  0.00000000E+00
  0.00000000E+00  0.00000000E+00  0.00000000E+00
  0.00000000E+00  0.00000000E+00  0.00000000E+00
  0.00000000E+00  0.00000000E+00  0.00000000E+00
  0.00000000E+00  0.00000000E+00  0.00000000E+00
  0.00000000E+00  0.00000000E+00  0.00000000E+00
  0.00000000E+00  0.00000000E+00  0.00000000E+00
  0.00000000E+00  0.00000000E+00  0.00000000E+00
  0.00000000E+00  0.00000000E+00  0.00000000E+00
  0.00000000E+00  0.00000000E+00  0.00000000E+00
  0.00000000E+00  0.00000000E+00  0.00000000E+00
  0.00000000E+00  0.00000000E+00  0.00000000E+00
  0.00000000E+00  0.00000000E+00  0.00000000E+00
  0.00000000E+00  0.00000000E+00  0.00000000E+00
  0.00000000E+00  0.00000000E+00  0.00000000E+00
  0.00000000E+00  0.00000000E+00  0.00000000E+00
  0.00000000E+00  0.00000000E+00  0.00000000E+00
  0.00000000E+00  0.00000000E+00  0.00000000E+00
  0.00000000E+00  0.00000000E+00  0.00000000E+00
  0.00000000E+00  0.00000000E+00  0.00000000E+00
  0.00000000E+00  0.00000000E+00  0.00000000E+00
  0.00000000E+00  0.00000000E+00  0.00000000E+00
  0.00000000E+00  0.00000000E+00  0.00000000E+00
  0.00000000E+00  0.00000000E+00  0.00000000E+00
  0.00000000E+00  0.00000000E+00  0.00000000E+00
  0.00000000E+00  0.00000000E+00  0.00000000E+00
  0.00000000E+00  0.00000000E+00  0.00000000E+00
  0.00000000E+00  0.00000000E+00  0.00000000E+00
  0.00000000E+00  0.00000000E+00  0.00000000E+00
  0.00000000E+00  0.00000000E+00  0.00000000E+00
  0.00000000E+00  0.00000000E+00  0.00000000E+00
  0.00000000E+00  0.00000000E+00  0.00000000E+00
  0.00000000E+00  0.00000000E+00  0.00000000E+00
