title                                   
    1.000000000000000     
     9.3550505525825010   -0.0012702484671434    0.0443631525622604
    -0.0012715137631112    9.3721648166562392   -0.0069102948238333
     0.0295190658949096   -0.0046122211671712    6.2454306658876400
   Cr   Mo   Ta   W 
    11     4     7    14
Direct
  0.8326609783637940  0.4960534351543106  0.2515096206258818
  0.6678208516335089  0.3342524306006162  0.0003022348121576
  0.1661451621813861  0.8397818462400611  0.2598229168019563
  0.1664058218118002  0.8378678892831324  0.7409402048383268
  0.3269887928566919 -0.0033955717585696  0.4975389599419899
  0.1643667148771537  0.1615875958117187  0.2516034274394107
  0.5034253958531273  0.4983556274619959  0.7491855869415972
  0.8356058736549585  0.1702950073325186  0.2493538710791726
  0.0051363349869184 -0.0020559881908418  0.4952125457875881
  0.5000212435306577  0.1690294222897411  0.7507183354269656
  0.1644613963385844  0.4984748013390587  0.2533105421829547
  0.0029530854495912  0.0002826350236887  0.0099033604736822
  0.1647088712410898  0.4978527885090925  0.7449948521801111
  0.8378066587125416  0.8357179271311983  0.2527769938531230
  0.6676476086961908  0.6629296858251728 -0.0003475916838847
  0.1644386980256155  0.1580752890962519  0.7382962616495642
  0.6716065162809353  0.0049809270903822  0.5029846086700084
  0.3267439340798616  0.6656470287301415 -0.0026296378964272
  0.4962276916802882  0.8355453008358893  0.2520588487227992
  0.0037547950348258  0.6669637522629905  0.0077638872439321
  0.4989406096521642  0.1673512082796066  0.2497146024064210
  0.3327436253893310  0.3339903462200339 -0.0044062848427654
  0.5035455484425641  0.4982039244354142  0.2493455785486165
  0.6677524072588330  0.3344816070220903  0.5029910471099378
 -0.0013475030140718  0.3323809657251816  0.4877309813152272
  0.8304483259396693  0.4972259637278584  0.7534740445193199
  0.3276393501499708  0.6665649869194814  0.5004835478646011
 -0.0024607658062490  0.3328386122812267  0.0111889899390020
  0.3279251474000112 -0.0009276804516684 -0.0026287062756026
  0.0037873595778476  0.6673973030660847  0.4965559052052193
  0.3331230170366198  0.3342455076061138  0.4987392720179918
  0.6680970777409623  0.6626649481021828  0.5020121704463627
  0.8360736028823784  0.1694001273872731  0.7541760081500883
  0.8388438104939100  0.8356858131084486  0.7497460776643545
  0.6691847247095688  0.0051694949602366 -0.0018044595080226
  0.4967772368569685  0.8350850415418872  0.7473813963483390
 
  0.00000000E+00  0.00000000E+00  0.00000000E+00
  0.00000000E+00  0.00000000E+00  0.00000000E+00
  0.00000000E+00  0.00000000E+00  0.00000000E+00
  0.00000000E+00  0.00000000E+00  0.00000000E+00
  0.00000000E+00  0.00000000E+00  0.00000000E+00
  0.00000000E+00  0.00000000E+00  0.00000000E+00
  0.00000000E+00  0.00000000E+00  0.00000000E+00
  0.00000000E+00  0.00000000E+00  0.00000000E+00
  0.00000000E+00  0.00000000E+00  0.00000000E+00
  0.00000000E+00  0.00000000E+00  0.00000000E+00
  0.00000000E+00  0.00000000E+00  0.00000000E+00
  0.00000000E+00  0.00000000E+00  0.00000000E+00
  0.00000000E+00  0.00000000E+00  0.00000000E+00
  0.00000000E+00  0.00000000E+00  0.00000000E+00
  0.00000000E+00  0.00000000E+00  0.00000000E+00
  0.00000000E+00  0.00000000E+00  0.00000000E+00
  0.00000000E+00  0.00000000E+00  0.00000000E+00
  0.00000000E+00  0.00000000E+00  0.00000000E+00
  0.00000000E+00  0.00000000E+00  0.00000000E+00
  0.00000000E+00  0.00000000E+00  0.00000000E+00
  0.00000000E+00  0.00000000E+00  0.00000000E+00
  0.00000000E+00  0.00000000E+00  0.00000000E+00
  0.00000000E+00  0.00000000E+00  0.00000000E+00
  0.00000000E+00  0.00000000E+00  0.00000000E+00
  0.00000000E+00  0.00000000E+00  0.00000000E+00
  0.00000000E+00  0.00000000E+00  0.00000000E+00
  0.00000000E+00  0.00000000E+00  0.00000000E+00
  0.00000000E+00  0.00000000E+00  0.00000000E+00
  0.00000000E+00  0.00000000E+00  0.00000000E+00
  0.00000000E+00  0.00000000E+00  0.00000000E+00
  0.00000000E+00  0.00000000E+00  0.00000000E+00
  0.00000000E+00  0.00000000E+00  0.00000000E+00
  0.00000000E+00  0.00000000E+00  0.00000000E+00
  0.00000000E+00  0.00000000E+00  0.00000000E+00
  0.00000000E+00  0.00000000E+00  0.00000000E+00
  0.00000000E+00  0.00000000E+00  0.00000000E+00
