title                                   
    1.000000000000000     
     9.7433410987304505   -0.0450994523963605    0.1824525588209741
    -0.0439508557566679    9.6502319744365082   -0.0539620829721693
     0.1225697813246653   -0.0374817600223310    6.5759052187896225
   Mo   Ti   V    Zr
     9     9     9     9
Direct
  0.0109205272537790 -0.0007216517574082  0.4963744982971350
  0.4892163148139586  0.8252797303661656  0.7501105622018557
  0.1728626286370340  0.8355471866401343  0.2539406568653183
  0.5028734266448367  0.1647267678432823  0.7508396487742020
  0.1755648072465047  0.8332532888396720  0.7358288225837166
  0.0071214034636668  0.3445675047420059  0.5130569991327787
  0.1819318232325364  0.5061760628803956  0.7436847543896914
  0.1631999485704421  0.1627407552947032  0.7367701954669587
  0.6631557198184783  0.3375196337030700  0.5226869919192778
  0.3320512809904660 -0.0115580634004542 -0.0207159065796484
  0.6339623627860138  0.6631071829198103  0.4976120317710455
  0.6440844429766116  0.0004842146567163 -0.0025372934910182
  0.8365840049201607  0.5004900115455351  0.2985767393733568
  0.8458458490552504  0.8249004271092196  0.2773389828193922
  0.8370582327127806  0.1729150173410921  0.7255471952819013
  0.8434288493216644  0.1817765024949105  0.2884634252219810
  0.0330021425608839  0.6643338260604498  0.4945323516144182
  0.3392606138538244  0.3398894979692382 -0.0183766133328967
  0.8297212729534602  0.4834085357795680  0.7225659699728828
  0.4700451277458903  0.5215635185020978  0.2416369606362471
  0.3351183737388497  0.6698124686830205 -0.0043173123492749
  0.1964718486587256  0.5112485946984623  0.2491066409799572
  0.5095424043520094  0.4996837988008018  0.7561182076450537
  0.4706949679467739  0.8325630856451006  0.2494668602125867
  0.3313766493596007 -0.0086074108523086  0.5147765672634943
  0.4763416646237578  0.1394248624332439  0.2500194964143959
  0.3335467768348453  0.6724218479586460  0.5064765477952744
  0.6596750056809219  0.3286322892808406  0.0202049772238934
  0.1700276397554475  0.1690990518099116  0.2561069100929262
  0.6619976612822540  0.6667590835929685  0.0106690795846215
  0.8346235448031259  0.8282972701998029  0.7130312170496036
  0.6492452630797837 -0.0031780722527150  0.4789952213527286
 -0.0062991414610668  0.0013410216983586 -0.0073100033219527
  0.0061381145137671  0.3427141391364183 -0.0048627824073647
  0.0129935767960376  0.6628918912650041 -0.0036397882424857
  0.3466148704769215  0.3364961283722380  0.5072211877879459
 
  0.00000000E+00  0.00000000E+00  0.00000000E+00
  0.00000000E+00  0.00000000E+00  0.00000000E+00
  0.00000000E+00  0.00000000E+00  0.00000000E+00
  0.00000000E+00  0.00000000E+00  0.00000000E+00
  0.00000000E+00  0.00000000E+00  0.00000000E+00
  0.00000000E+00  0.00000000E+00  0.00000000E+00
  0.00000000E+00  0.00000000E+00  0.00000000E+00
  0.00000000E+00  0.00000000E+00  0.00000000E+00
  0.00000000E+00  0.00000000E+00  0.00000000E+00
  0.00000000E+00  0.00000000E+00  0.00000000E+00
  0.00000000E+00  0.00000000E+00  0.00000000E+00
  0.00000000E+00  0.00000000E+00  0.00000000E+00
  0.00000000E+00  0.00000000E+00  0.00000000E+00
  0.00000000E+00  0.00000000E+00  0.00000000E+00
  0.00000000E+00  0.00000000E+00  0.00000000E+00
  0.00000000E+00  0.00000000E+00  0.00000000E+00
  0.00000000E+00  0.00000000E+00  0.00000000E+00
  0.00000000E+00  0.00000000E+00  0.00000000E+00
  0.00000000E+00  0.00000000E+00  0.00000000E+00
  0.00000000E+00  0.00000000E+00  0.00000000E+00
  0.00000000E+00  0.00000000E+00  0.00000000E+00
  0.00000000E+00  0.00000000E+00  0.00000000E+00
  0.00000000E+00  0.00000000E+00  0.00000000E+00
  0.00000000E+00  0.00000000E+00  0.00000000E+00
  0.00000000E+00  0.00000000E+00  0.00000000E+00
  0.00000000E+00  0.00000000E+00  0.00000000E+00
  0.00000000E+00  0.00000000E+00  0.00000000E+00
  0.00000000E+00  0.00000000E+00  0.00000000E+00
  0.00000000E+00  0.00000000E+00  0.00000000E+00
  0.00000000E+00  0.00000000E+00  0.00000000E+00
  0.00000000E+00  0.00000000E+00  0.00000000E+00
  0.00000000E+00  0.00000000E+00  0.00000000E+00
  0.00000000E+00  0.00000000E+00  0.00000000E+00
  0.00000000E+00  0.00000000E+00  0.00000000E+00
  0.00000000E+00  0.00000000E+00  0.00000000E+00
  0.00000000E+00  0.00000000E+00  0.00000000E+00
