title                                   
    1.000000000000000     
     9.8135193061343973    0.0331191212408278   -0.0442022098981975
     0.0334263618133155    9.8440398524898622   -0.0091639279459173
    -0.0294327584436118   -0.0061453003444882    6.5197888220563796
   Hf   Nb   Ta   V    W 
     7     7     7     7     8
Direct
  0.6539539755290695  0.0051061838063989  0.5281031864227860
  0.6784807396762573  0.3391324808258206 -0.0007209225683928
  0.5083661813366975  0.1582878207432906  0.2193362483257882
  0.3315876640892156  0.3296578514664124  0.5031217453567448
  0.8234513221035208  0.8369093284466120  0.2454872649985270
  0.3317743070497880  0.0030592506880482  0.4982008742520436
  0.1556222727764064  0.8333574284397710  0.7385375198370995
  0.1596006804194718  0.1665261943820094  0.7612467495810540
  0.3309311112479692 -0.0066914781245538 -0.0026366000612847
  0.5030318080482545  0.5082686897487103  0.2554461010486585
  0.3264494090084086  0.3394958862163477  0.0007568072727344
  0.0007403423880139  0.0062534399059328  0.0129416106527000
  0.6773580070538199  0.3366205835981999  0.5036114737577266
 -0.0003463916064699  0.6571748802554339  0.4930079781358448
  0.8314189279485095  0.8293384622897432  0.7555991615331973
  0.8439702477699521  0.1640913570214324  0.7535178866184188
  0.0058636069354153  0.3358457074243425  0.4973208837926530
  0.3298730727125795  0.6646329939408927  0.0001870450646424
  0.5045221142810884  0.8264436942497452  0.2413452101188188
  0.5041765112464243  0.5120468320542112  0.7466550960792590
  0.0016054399455292  0.6570151848786154  0.0047406324665886
  0.1674557597071696  0.4986454017274560  0.2465164295567518
  0.4998193917495747  0.8171947964347289  0.7525315114596456
  0.6622073519310988 -0.0046534070413754 -0.0304719535241194
  0.1547278600190933  0.1708554716232293  0.2427702215723181
 -0.0010577987304006  0.0181674695139343  0.4864986434893952
  0.4971601444752805  0.1634253503239122  0.7897887304577471
  0.6697102167991058  0.6587487852860801 -0.0063313620455004
  0.6668125455837557  0.6665266313251026  0.5040449588365975
  0.0016737625860689  0.3373870987227175  0.0080408311855955
  0.8429181550522432  0.1659621987372832  0.2559824392956728
  0.3312464332671107  0.6653957510484572  0.4932405723351151
  0.8367970242119703  0.5052814413510387  0.2538815016317611
  0.1642151676553999  0.8290847151155557  0.2485080647116163
  0.1683689496168833  0.5023918712356359  0.7511119606125716
  0.8355136861157250  0.5030136523388288  0.7480814977392238
 
  0.00000000E+00  0.00000000E+00  0.00000000E+00
  0.00000000E+00  0.00000000E+00  0.00000000E+00
  0.00000000E+00  0.00000000E+00  0.00000000E+00
  0.00000000E+00  0.00000000E+00  0.00000000E+00
  0.00000000E+00  0.00000000E+00  0.00000000E+00
  0.00000000E+00  0.00000000E+00  0.00000000E+00
  0.00000000E+00  0.00000000E+00  0.00000000E+00
  0.00000000E+00  0.00000000E+00  0.00000000E+00
  0.00000000E+00  0.00000000E+00  0.00000000E+00
  0.00000000E+00  0.00000000E+00  0.00000000E+00
  0.00000000E+00  0.00000000E+00  0.00000000E+00
  0.00000000E+00  0.00000000E+00  0.00000000E+00
  0.00000000E+00  0.00000000E+00  0.00000000E+00
  0.00000000E+00  0.00000000E+00  0.00000000E+00
  0.00000000E+00  0.00000000E+00  0.00000000E+00
  0.00000000E+00  0.00000000E+00  0.00000000E+00
  0.00000000E+00  0.00000000E+00  0.00000000E+00
  0.00000000E+00  0.00000000E+00  0.00000000E+00
  0.00000000E+00  0.00000000E+00  0.00000000E+00
  0.00000000E+00  0.00000000E+00  0.00000000E+00
  0.00000000E+00  0.00000000E+00  0.00000000E+00
  0.00000000E+00  0.00000000E+00  0.00000000E+00
  0.00000000E+00  0.00000000E+00  0.00000000E+00
  0.00000000E+00  0.00000000E+00  0.00000000E+00
  0.00000000E+00  0.00000000E+00  0.00000000E+00
  0.00000000E+00  0.00000000E+00  0.00000000E+00
  0.00000000E+00  0.00000000E+00  0.00000000E+00
  0.00000000E+00  0.00000000E+00  0.00000000E+00
  0.00000000E+00  0.00000000E+00  0.00000000E+00
  0.00000000E+00  0.00000000E+00  0.00000000E+00
  0.00000000E+00  0.00000000E+00  0.00000000E+00
  0.00000000E+00  0.00000000E+00  0.00000000E+00
  0.00000000E+00  0.00000000E+00  0.00000000E+00
  0.00000000E+00  0.00000000E+00  0.00000000E+00
  0.00000000E+00  0.00000000E+00  0.00000000E+00
  0.00000000E+00  0.00000000E+00  0.00000000E+00
