title                                   
    1.000000000000000     
     9.5662684320885063    0.0153211317234450    0.0389409924334975
     0.0153449683499596    9.5828471994990725    0.0156871063349639
     0.0258833137090371    0.0103926406856386    6.4067589426419769
   Hf   Nb   Ta   V    W 
     1     6    12    15     2
Direct
  0.3326173835372682  0.0038325875164877 -0.0005606801831433
  0.8287572981818528  0.1643688344354212  0.7423336944196886
 -0.0050054250872039 -0.0002861984804970  0.4877440119706217
 -0.0039203666353575  0.0014921127649062  0.0072929014513239
  0.1620763868448055  0.8268710026303570  0.7413210503440629
  0.5052652627676818  0.1687049817320440  0.7337041889543616
  0.3400998210020404  0.6678509380369366 -0.0069155705183153
  0.8320231400888179  0.8297301450458805  0.7592290815773233
  0.6723512067572152  0.3415965629761277 -0.0034815037351106
  0.1621761519085559  0.8216385694898772  0.2583429781462024
  0.1633013239234296  0.5027083205807727  0.7413487330600966
  0.5089956143328048  0.8348332635956665  0.2553520041580467
  0.6722478178616259  0.6607772111508624  0.5060623100468694
  0.5000778973725318  0.4993448451624161  0.2590876472594372
  0.1647719526188324  0.5041169007238314  0.2574986514851930
  0.1654085535016319  0.1734553754956979  0.7284393577367698
  0.3342008097416006  0.3315666038799380 -0.0016101982778399
 -0.0075294786278275  0.3355917816947737  0.0047796662165800
  0.5109585471411725  0.1662661075602374  0.2638223270513565
  0.6677940150664929 -0.0053175549065213  0.0022699063747608
  0.3384807051891095 -0.0029035685291776  0.5019550086430280
  0.6740075157711205  0.6639644350558319  0.0026464126329642
  0.6709901466840950  0.3405923556986906  0.5024012574649470
  0.1625203747214094  0.1769539334921603  0.2629728268926750
  0.6678648323045888 -0.0051153523934377  0.4991940933159595
  0.8303151228864950  0.8285296992474879  0.2435384956229584
  0.8359752935833709  0.5030930073769471  0.2525008923426133
  0.3356251739581028  0.3355854975222189  0.5001240980873602
  0.8368216851192013  0.5034772197904848  0.7501013947003347
 -0.0138536969813799  0.6603365701823082  0.0074684345106141
  0.8279901934795869  0.1657239554215146  0.2530908487604554
  0.3410547588807763  0.6685582833807383  0.5086100282232012
  0.4985210397473283  0.4997587043236779  0.7448975797268987
 -0.0127037100888303  0.6623090677167076  0.4952170784978831
  0.5078154003733865  0.8327246616324281  0.7470911236588199
 -0.0080927479263323  0.3372691389962007  0.4921298693810018
 
  0.00000000E+00  0.00000000E+00  0.00000000E+00
  0.00000000E+00  0.00000000E+00  0.00000000E+00
  0.00000000E+00  0.00000000E+00  0.00000000E+00
  0.00000000E+00  0.00000000E+00  0.00000000E+00
  0.00000000E+00  0.00000000E+00  0.00000000E+00
  0.00000000E+00  0.00000000E+00  0.00000000E+00
  0.00000000E+00  0.00000000E+00  0.00000000E+00
  0.00000000E+00  0.00000000E+00  0.00000000E+00
  0.00000000E+00  0.00000000E+00  0.00000000E+00
  0.00000000E+00  0.00000000E+00  0.00000000E+00
  0.00000000E+00  0.00000000E+00  0.00000000E+00
  0.00000000E+00  0.00000000E+00  0.00000000E+00
  0.00000000E+00  0.00000000E+00  0.00000000E+00
  0.00000000E+00  0.00000000E+00  0.00000000E+00
  0.00000000E+00  0.00000000E+00  0.00000000E+00
  0.00000000E+00  0.00000000E+00  0.00000000E+00
  0.00000000E+00  0.00000000E+00  0.00000000E+00
  0.00000000E+00  0.00000000E+00  0.00000000E+00
  0.00000000E+00  0.00000000E+00  0.00000000E+00
  0.00000000E+00  0.00000000E+00  0.00000000E+00
  0.00000000E+00  0.00000000E+00  0.00000000E+00
  0.00000000E+00  0.00000000E+00  0.00000000E+00
  0.00000000E+00  0.00000000E+00  0.00000000E+00
  0.00000000E+00  0.00000000E+00  0.00000000E+00
  0.00000000E+00  0.00000000E+00  0.00000000E+00
  0.00000000E+00  0.00000000E+00  0.00000000E+00
  0.00000000E+00  0.00000000E+00  0.00000000E+00
  0.00000000E+00  0.00000000E+00  0.00000000E+00
  0.00000000E+00  0.00000000E+00  0.00000000E+00
  0.00000000E+00  0.00000000E+00  0.00000000E+00
  0.00000000E+00  0.00000000E+00  0.00000000E+00
  0.00000000E+00  0.00000000E+00  0.00000000E+00
  0.00000000E+00  0.00000000E+00  0.00000000E+00
  0.00000000E+00  0.00000000E+00  0.00000000E+00
  0.00000000E+00  0.00000000E+00  0.00000000E+00
  0.00000000E+00  0.00000000E+00  0.00000000E+00
