title                                   
    1.000000000000000     
     9.1483390043525610    0.0620611484775126    0.0150096072531313
     0.0622554583027438    9.2037001516289649    0.0384233542384874
     0.0100782261111283    0.0255386011234293    6.1023007255380159
   Cr   Mo   Ti   V 
     9     9     9     9
Direct
  0.6658804945480044  0.6635280477008869  0.5084231669334743
  0.1678401304491882  0.1761994584227849  0.2467864269468573
  0.8318536471947569  0.1701364637987460  0.2551726142733618
  0.4905856621707954  0.1812989126110276  0.2487560970683723
  0.3363940930276288  0.3327270715855676  0.4924946793174654
  0.3378453071086568  0.3326305524940632  0.0059650801533045
  0.5076479644350015  0.8270520871630238  0.7450850875591132
  0.5006988489371117  0.4985821986602691  0.2623358516856072
  0.5033740337043848  0.4980420070719970  0.7447005891576659
 -0.0056127187670735  0.0036925356344522  0.4939804474808500
  0.1675528700076648  0.8279954675940072  0.2525316635424122
  0.6601684335985814  0.0062646248218850  0.0012640048527491
 -0.0004032295305719  0.3324495667556563  0.0049398574020788
  0.3445013061587429  0.6585936590295762  0.4984128272702587
  0.8262724797375589  0.1710744253704603  0.7523506658447691
  0.1704690915089996  0.1728209306207194  0.7446264095066072
  0.6646177965658543  0.6618522009475654 -0.0023786916384836
 -0.0008880736540689  0.3349258215151490  0.4964554205641465
  0.0073649221004446  0.6568646719289859  0.0014136580468616
  0.3392279904499190  0.0063987386274471  0.4873180103808283
 -0.0018407944153823  0.0042784380633554  0.0025959811168849
  0.1637614666166753  0.8281618010383887  0.7364030305481263
  0.6547031225203107  0.0087908740350103  0.5017770833167426
  0.8248689574166559  0.8263251614512470  0.2583346125185804
  0.6599308207622501  0.3374298641530617  0.0135278229885073
  0.3352646596887684  0.0031500054935857  0.0015182661914408
  0.3423897710496293  0.6569123541015260 -0.0039874424903496
  0.1774011279520185  0.4866321336232802  0.2557050121990275
  0.0003407827104693  0.6588930605436838  0.4988743314326141
  0.8310999712673562  0.8269432867108288  0.7402663167091065
  0.1762604479233349  0.4935971873778126  0.7394948674351343
  0.5132573188535637  0.8234479295135848  0.2517697687838576
  0.8307792870604480  0.5033793553908130  0.2653880358465548
  0.4881618148964952  0.1847709942726903  0.7527122162897758
  0.8299676704323303  0.5062678582330388  0.7443406498490394
  0.6582625255134955  0.3378902536438245  0.5006455809166588
 
  0.00000000E+00  0.00000000E+00  0.00000000E+00
  0.00000000E+00  0.00000000E+00  0.00000000E+00
  0.00000000E+00  0.00000000E+00  0.00000000E+00
  0.00000000E+00  0.00000000E+00  0.00000000E+00
  0.00000000E+00  0.00000000E+00  0.00000000E+00
  0.00000000E+00  0.00000000E+00  0.00000000E+00
  0.00000000E+00  0.00000000E+00  0.00000000E+00
  0.00000000E+00  0.00000000E+00  0.00000000E+00
  0.00000000E+00  0.00000000E+00  0.00000000E+00
  0.00000000E+00  0.00000000E+00  0.00000000E+00
  0.00000000E+00  0.00000000E+00  0.00000000E+00
  0.00000000E+00  0.00000000E+00  0.00000000E+00
  0.00000000E+00  0.00000000E+00  0.00000000E+00
  0.00000000E+00  0.00000000E+00  0.00000000E+00
  0.00000000E+00  0.00000000E+00  0.00000000E+00
  0.00000000E+00  0.00000000E+00  0.00000000E+00
  0.00000000E+00  0.00000000E+00  0.00000000E+00
  0.00000000E+00  0.00000000E+00  0.00000000E+00
  0.00000000E+00  0.00000000E+00  0.00000000E+00
  0.00000000E+00  0.00000000E+00  0.00000000E+00
  0.00000000E+00  0.00000000E+00  0.00000000E+00
  0.00000000E+00  0.00000000E+00  0.00000000E+00
  0.00000000E+00  0.00000000E+00  0.00000000E+00
  0.00000000E+00  0.00000000E+00  0.00000000E+00
  0.00000000E+00  0.00000000E+00  0.00000000E+00
  0.00000000E+00  0.00000000E+00  0.00000000E+00
  0.00000000E+00  0.00000000E+00  0.00000000E+00
  0.00000000E+00  0.00000000E+00  0.00000000E+00
  0.00000000E+00  0.00000000E+00  0.00000000E+00
  0.00000000E+00  0.00000000E+00  0.00000000E+00
  0.00000000E+00  0.00000000E+00  0.00000000E+00
  0.00000000E+00  0.00000000E+00  0.00000000E+00
  0.00000000E+00  0.00000000E+00  0.00000000E+00
  0.00000000E+00  0.00000000E+00  0.00000000E+00
  0.00000000E+00  0.00000000E+00  0.00000000E+00
  0.00000000E+00  0.00000000E+00  0.00000000E+00
