title                                   
    1.000000000000000     
     9.5311053730046602   -0.0046731765538659   -0.0015719562632023
    -0.0046376187573779    9.5801248820333260    0.0099199495972124
    -0.0010213252518810    0.0066500839171158    6.3786345976214465
   Nb   Ta   V    Zr
     4    10    19     3
Direct
  0.5022859052798576  0.4848530379094598  0.2551818905207924
  0.6533467258561392 -0.0035119204609602 -0.0028814622301834
  0.8260787180893540  0.1581564073251326  0.7424741011729669
  0.0026525324518781  0.6605923849059164  0.0119620737782402
  0.8349168357175881  0.8323774965256495  0.2519248041739589
  0.8351984732470141  0.8291605330896359  0.7506789589538934
  0.1785853962963121  0.4954145697740707  0.7381390214446533
  0.6626277928587796  0.3341384757692988 -0.0079429529598736
  0.1784749964586294  0.1643973243349755  0.7479769628446473
 -0.0065180582936063  0.3404098464001120  0.4978832601102633
  0.3381195594083229  0.6715747549184093  0.4895039679579918
  0.1762244780944404  0.1594775090383312  0.2524891414850540
  0.8217592535322943  0.1574840766237455  0.2593086470748061
  0.6616104746215119  0.6635145829297836  0.5050534388836053
  0.6592359774998184  0.3337327317825061  0.5077057629258181
  0.6722176452719156  0.6571921726085515 -0.0035557887829830
  0.1667423502253718  0.5023091026535613  0.2699888035778009
  0.3402802915583801  0.3290746487337498  0.5012966852617503
  0.4907609546841926  0.1669571947519536  0.7392561592824923
  0.5024737422599028  0.4806144067695067  0.7409799015636153
  0.3427197279100836  0.0050068060715368  0.0093943339970408
  0.5046704660334740  0.8497730177410904  0.7313837761873648
  0.1606772375054028  0.8468590621321834  0.2549627658567932
  0.5021352281042598  0.8509285194034822  0.2643200879539702
  0.8255370135589580  0.5106754201678085  0.7464652064028423
 -0.0021524551015238  0.6592854905444762  0.4910597609620678
  0.0000025855760463  0.0009440216422034  0.0121381837249051
  0.3447320179354555  0.0021184881469876  0.4887372203479642
 -0.0032101214600256  0.0001141322075086  0.4893416543578365
  0.3442552689059048  0.3249454301801002 -0.0049216390474933
  0.4910644918086433  0.1639325239201623  0.2562210435575253
  0.8294419945032073  0.5127217453117174  0.2576587903350185
  0.6524059890038447 -0.0026491352885125  0.5010101940131592
  0.3517583427815893  0.6741408492180934  0.0038121951105430
 -0.0040640235604551  0.3388590264669278  0.0049677335601155
  0.1629521913770356  0.8444252657508444  0.7460253156410380
 
  0.00000000E+00  0.00000000E+00  0.00000000E+00
  0.00000000E+00  0.00000000E+00  0.00000000E+00
  0.00000000E+00  0.00000000E+00  0.00000000E+00
  0.00000000E+00  0.00000000E+00  0.00000000E+00
  0.00000000E+00  0.00000000E+00  0.00000000E+00
  0.00000000E+00  0.00000000E+00  0.00000000E+00
  0.00000000E+00  0.00000000E+00  0.00000000E+00
  0.00000000E+00  0.00000000E+00  0.00000000E+00
  0.00000000E+00  0.00000000E+00  0.00000000E+00
  0.00000000E+00  0.00000000E+00  0.00000000E+00
  0.00000000E+00  0.00000000E+00  0.00000000E+00
  0.00000000E+00  0.00000000E+00  0.00000000E+00
  0.00000000E+00  0.00000000E+00  0.00000000E+00
  0.00000000E+00  0.00000000E+00  0.00000000E+00
  0.00000000E+00  0.00000000E+00  0.00000000E+00
  0.00000000E+00  0.00000000E+00  0.00000000E+00
  0.00000000E+00  0.00000000E+00  0.00000000E+00
  0.00000000E+00  0.00000000E+00  0.00000000E+00
  0.00000000E+00  0.00000000E+00  0.00000000E+00
  0.00000000E+00  0.00000000E+00  0.00000000E+00
  0.00000000E+00  0.00000000E+00  0.00000000E+00
  0.00000000E+00  0.00000000E+00  0.00000000E+00
  0.00000000E+00  0.00000000E+00  0.00000000E+00
  0.00000000E+00  0.00000000E+00  0.00000000E+00
  0.00000000E+00  0.00000000E+00  0.00000000E+00
  0.00000000E+00  0.00000000E+00  0.00000000E+00
  0.00000000E+00  0.00000000E+00  0.00000000E+00
  0.00000000E+00  0.00000000E+00  0.00000000E+00
  0.00000000E+00  0.00000000E+00  0.00000000E+00
  0.00000000E+00  0.00000000E+00  0.00000000E+00
  0.00000000E+00  0.00000000E+00  0.00000000E+00
  0.00000000E+00  0.00000000E+00  0.00000000E+00
  0.00000000E+00  0.00000000E+00  0.00000000E+00
  0.00000000E+00  0.00000000E+00  0.00000000E+00
  0.00000000E+00  0.00000000E+00  0.00000000E+00
  0.00000000E+00  0.00000000E+00  0.00000000E+00
