title                                   
    1.000000000000000     
     9.7237042050686409    0.0052686300466136    0.0410429863150963
     0.0052620141424550    9.7292597487329751    0.0048030554049425
     0.0273535164796885    0.0031976949394881    6.4900704738259227
   Hf   Mo   Ta   W 
     4    14    11     7
Direct
  0.8386874746897355  0.1676630403449703  0.2498552060025688
  0.6651498323376590  0.0019621289653596  0.0022539402047811
  0.4969462387335666  0.8263998566070238  0.7493514619018872
  0.1664665481440042  0.1716520932529701  0.2388934840130051
  0.6661669818021482  0.6626699641404130  0.0038484034074679
  0.3329772483412612  0.6658822081392682  0.0052911360519693
  0.0027772792291273  0.6688939578318608  0.0002475449968322
  0.4973651014302119  0.5010939956437325  0.7501612950797488
  0.1684853845240916  0.1681123058735871  0.7527532823743928
  0.4985665806207223  0.8282147631377420  0.2536680575273023
  0.1676559183629874  0.8318613530279833  0.2470301419858489
  0.8344206432994584  0.1668816435328353  0.7492456960416164
  0.4985427752585609  0.5025203420851113  0.2506148169332573
  0.6645457372842642 -0.0009325258968123  0.4983438525251918
  0.3341691000685745  0.6660414362764437  0.4943183334169862
  0.0021567397344068  0.6682195321475208  0.5033059992519442
  0.3322047210083573 -0.0009882882427733 -0.0001559430075668
 -0.0009412788208367  0.3376794304270067 -0.0092413386391243
  0.4933490216923049  0.1655895970752289  0.7454629251475988
  0.1691539109157319  0.5034416328286134  0.2484479327137216
  0.8361777430210043  0.5042911174979073  0.2486556870110504
  0.0065596491787357 -0.0024735309812415  0.5085488584895168
  0.8358723348055350  0.8284547781074372  0.2536356765254985
  0.1682950608251003  0.5043933780976460  0.7551763583358442
  0.6622845660344993  0.3348500309834491 -0.0046248146361024
  0.3283077799463811 -0.0036696751752984  0.4942776565565701
  0.8343672579067085  0.8261944137202188  0.7483100247382555
 -0.0016473479042720  0.3348769124752867  0.5150926439273350
  0.6643478584561080  0.3376347618588546  0.5045082879996929
  0.8345304448983866  0.5042215151655286  0.7537709501638999
  0.4935662748093915  0.1700295301026317  0.2513596100139853
  0.3379597215551496  0.3375516188444229 -0.0042977859572152
  0.3369926165045071  0.3352817574744454  0.5002509095437069
  0.0011803615969586 -0.0043966266898154 -0.0099041248310824
  0.1669965963580831  0.8296268591676179  0.7544525700996417
  0.6653631233513848  0.6602746921528260  0.4970912640899731
 
  0.00000000E+00  0.00000000E+00  0.00000000E+00
  0.00000000E+00  0.00000000E+00  0.00000000E+00
  0.00000000E+00  0.00000000E+00  0.00000000E+00
  0.00000000E+00  0.00000000E+00  0.00000000E+00
  0.00000000E+00  0.00000000E+00  0.00000000E+00
  0.00000000E+00  0.00000000E+00  0.00000000E+00
  0.00000000E+00  0.00000000E+00  0.00000000E+00
  0.00000000E+00  0.00000000E+00  0.00000000E+00
  0.00000000E+00  0.00000000E+00  0.00000000E+00
  0.00000000E+00  0.00000000E+00  0.00000000E+00
  0.00000000E+00  0.00000000E+00  0.00000000E+00
  0.00000000E+00  0.00000000E+00  0.00000000E+00
  0.00000000E+00  0.00000000E+00  0.00000000E+00
  0.00000000E+00  0.00000000E+00  0.00000000E+00
  0.00000000E+00  0.00000000E+00  0.00000000E+00
  0.00000000E+00  0.00000000E+00  0.00000000E+00
  0.00000000E+00  0.00000000E+00  0.00000000E+00
  0.00000000E+00  0.00000000E+00  0.00000000E+00
  0.00000000E+00  0.00000000E+00  0.00000000E+00
  0.00000000E+00  0.00000000E+00  0.00000000E+00
  0.00000000E+00  0.00000000E+00  0.00000000E+00
  0.00000000E+00  0.00000000E+00  0.00000000E+00
  0.00000000E+00  0.00000000E+00  0.00000000E+00
  0.00000000E+00  0.00000000E+00  0.00000000E+00
  0.00000000E+00  0.00000000E+00  0.00000000E+00
  0.00000000E+00  0.00000000E+00  0.00000000E+00
  0.00000000E+00  0.00000000E+00  0.00000000E+00
  0.00000000E+00  0.00000000E+00  0.00000000E+00
  0.00000000E+00  0.00000000E+00  0.00000000E+00
  0.00000000E+00  0.00000000E+00  0.00000000E+00
  0.00000000E+00  0.00000000E+00  0.00000000E+00
  0.00000000E+00  0.00000000E+00  0.00000000E+00
  0.00000000E+00  0.00000000E+00  0.00000000E+00
  0.00000000E+00  0.00000000E+00  0.00000000E+00
  0.00000000E+00  0.00000000E+00  0.00000000E+00
  0.00000000E+00  0.00000000E+00  0.00000000E+00
