title                                   
    1.000000000000000     
     9.8074406868797439    0.0609335059398619   -0.0120904283351600
     0.0610626696871245    9.8326051845982079    0.0321159652417258
    -0.0079917029405098    0.0214493556459471    6.5214799866332260
   Hf   Mo   Nb   Ti   Zr
     3    15    11     4     3
Direct
  0.1594849563360302  0.4901989127620039  0.7630911754261925
  0.1527078711886523  0.4872074776674487  0.2408140769847904
  0.4938458578332149  0.8470450502701210  0.7406214432816857
  0.8356060588240518  0.4929975607531059  0.7535734891024025
  0.8347011427637804  0.8362104495535120  0.7491380048276761
  0.0012820951722379 -0.0039292867809755  0.0031112939098532
  0.8357848519208376  0.8349514722879641  0.2496416940642720
  0.6707784062078724  0.0068070586302639  0.4930623935247639
  0.5002859812517964  0.1685812175110771  0.2581770240365681
  0.8381585976421105  0.1687549451569053  0.2541498816976789
  0.1654745708708202  0.1659360177655876  0.7520685876760111
  0.5083279038953445  0.4940226153708898  0.2471709749100990
  0.5024636744036736  0.4965841562743053  0.7531779295072853
  0.1637939771870233  0.8431874913267116  0.2463482096445862
  0.5018564409324643  0.1675293441052795  0.7411598596536216
  0.3283123941267038  0.0099856431439745  0.4956320469852099
 -0.0081999509857072  0.3224573736290856 -0.0024163178191353
  0.6625241061710566  0.3335809888931118  0.5000603945210745
  0.1665646300650470  0.8396858113308490  0.7534397856132795
  0.8347502234451211  0.1681372198744496  0.7470132759820339
 -0.0006772884433666 -0.0036409174987756  0.4986072609462019
 -0.0090674151091067  0.6759792598374739  0.0004018121487933
 -0.0091922645608806  0.6751493064381490  0.5008943740333551
  0.3367895315882702  0.6656305191097457  0.0068494529387879
  0.6695511048276179  0.6624316204963232 -0.0011937831593381
  0.6623768264196539  0.3355657083926315 -0.0014172895186856
  0.4962215674150709  0.8443978990747312  0.2550075310511898
 -0.0076573634342240  0.3217515326926437  0.5053451820967255
  0.3292019317427851  0.0138363333073597  0.0011781288660103
  0.8385519523917522  0.4888708843094528  0.2453400727215347
  0.1673274146259188  0.1658061912025090  0.2504812582217954
  0.3520114256736585  0.3282233802579695 -0.0034747104462226
  0.3506929708408011  0.3261923002031542  0.5070715482201762
  0.6698323035867628  0.6612986238313565  0.4980036321486328
  0.6723779206279809  0.0069446339343423  0.0053054189955903
  0.3331555925551761  0.6616312048852643  0.4925648872055039
 
  0.00000000E+00  0.00000000E+00  0.00000000E+00
  0.00000000E+00  0.00000000E+00  0.00000000E+00
  0.00000000E+00  0.00000000E+00  0.00000000E+00
  0.00000000E+00  0.00000000E+00  0.00000000E+00
  0.00000000E+00  0.00000000E+00  0.00000000E+00
  0.00000000E+00  0.00000000E+00  0.00000000E+00
  0.00000000E+00  0.00000000E+00  0.00000000E+00
  0.00000000E+00  0.00000000E+00  0.00000000E+00
  0.00000000E+00  0.00000000E+00  0.00000000E+00
  0.00000000E+00  0.00000000E+00  0.00000000E+00
  0.00000000E+00  0.00000000E+00  0.00000000E+00
  0.00000000E+00  0.00000000E+00  0.00000000E+00
  0.00000000E+00  0.00000000E+00  0.00000000E+00
  0.00000000E+00  0.00000000E+00  0.00000000E+00
  0.00000000E+00  0.00000000E+00  0.00000000E+00
  0.00000000E+00  0.00000000E+00  0.00000000E+00
  0.00000000E+00  0.00000000E+00  0.00000000E+00
  0.00000000E+00  0.00000000E+00  0.00000000E+00
  0.00000000E+00  0.00000000E+00  0.00000000E+00
  0.00000000E+00  0.00000000E+00  0.00000000E+00
  0.00000000E+00  0.00000000E+00  0.00000000E+00
  0.00000000E+00  0.00000000E+00  0.00000000E+00
  0.00000000E+00  0.00000000E+00  0.00000000E+00
  0.00000000E+00  0.00000000E+00  0.00000000E+00
  0.00000000E+00  0.00000000E+00  0.00000000E+00
  0.00000000E+00  0.00000000E+00  0.00000000E+00
  0.00000000E+00  0.00000000E+00  0.00000000E+00
  0.00000000E+00  0.00000000E+00  0.00000000E+00
  0.00000000E+00  0.00000000E+00  0.00000000E+00
  0.00000000E+00  0.00000000E+00  0.00000000E+00
  0.00000000E+00  0.00000000E+00  0.00000000E+00
  0.00000000E+00  0.00000000E+00  0.00000000E+00
  0.00000000E+00  0.00000000E+00  0.00000000E+00
  0.00000000E+00  0.00000000E+00  0.00000000E+00
  0.00000000E+00  0.00000000E+00  0.00000000E+00
  0.00000000E+00  0.00000000E+00  0.00000000E+00
