title                                   
    1.000000000000000     
     9.2946558504112247   -0.0639851292691342    0.0565796387701817
    -0.0637697999429782    9.3058827827483377    0.0889088071871450
     0.0378808571022638    0.0595138396152756    6.2243737993513824
   Cr   Nb   Ti   V 
     9     9     9     9
Direct
  0.1651257728559339  0.4901553702380824  0.7399442359741480
  0.6692250066039822  0.3316489642050279 -0.0038655986925995
 -0.0085798473564576  0.3259197282519611  0.5100535655983766
  0.0047448825534476 -0.0006657323465721 -0.0142618988751048
  0.3242472293858799  0.6763623157938398  0.0120387869076642
  0.5082974915817807  0.1687840997418539  0.7541932095167976
  0.1736590753435910  0.8307927028128733  0.2360137953191873
  0.8269342149638488  0.1617482672948085  0.2466513834772340
  0.8309482979190675  0.4874717284519719  0.7575604521922644
  0.6704304164163091  0.6585123613901661  0.5100766686332177
  0.8379457792137717  0.8426289655009654  0.2394701617854572
  0.5027340586730068  0.1789800201166912  0.2485713483274123
  0.3308428510573117 -0.0005141540245389  0.5009447928319991
  0.1472589576909787  0.1628988502416966  0.2515942752721949
  0.4980137728095327  0.5058275536045302  0.7782309170334120
  0.0111944010298985  0.6623879291986572  0.5030898168128553
  0.8310357420299842  0.4849455060206207  0.2525197096157927
  0.1768476090894431  0.4934068328488800  0.2504442610842545
  0.6639218776789584  0.3283625549483184  0.5200630765943297
  0.3289860104838899  0.6708447098793854  0.5106069113008898
  0.0109223428398615  0.6574851775819581 -0.0139978172919089
  0.8386977396893949  0.8453846560590258  0.7532241807102332
  0.3286996717041195  0.0030170331727303 -0.0097302021473200
 -0.0104550631190034  0.3306092108155298 -0.0210681998583199
  0.3257515855336330  0.3260852835237726 -0.0190574508973537
  0.5117888493351147  0.8363826167503672  0.7721693325150377
  0.5080790362461849  0.8306141775015112  0.2381681663489663
  0.4981537952388166  0.5075622506076961  0.2491724543745841
  0.6731505834747903  0.0231003066599612 -0.0025697235241497
  0.1455789192753485  0.1615672983408470  0.7319176116184376
  0.6735990303221578  0.0233619503284095  0.4990612205081394
  0.8349835150518805  0.1594859677070190  0.7461568135758475
  0.6787149987352836  0.6540683569178669  0.0096017635528744
 -0.0010413411625183  0.0004842500444963  0.4889485857912335
  0.3275831430240234  0.3383983186565275  0.5220295416581722
  0.1619795937867540  0.8418945711630647  0.7520338523557430
 
  0.00000000E+00  0.00000000E+00  0.00000000E+00
  0.00000000E+00  0.00000000E+00  0.00000000E+00
  0.00000000E+00  0.00000000E+00  0.00000000E+00
  0.00000000E+00  0.00000000E+00  0.00000000E+00
  0.00000000E+00  0.00000000E+00  0.00000000E+00
  0.00000000E+00  0.00000000E+00  0.00000000E+00
  0.00000000E+00  0.00000000E+00  0.00000000E+00
  0.00000000E+00  0.00000000E+00  0.00000000E+00
  0.00000000E+00  0.00000000E+00  0.00000000E+00
  0.00000000E+00  0.00000000E+00  0.00000000E+00
  0.00000000E+00  0.00000000E+00  0.00000000E+00
  0.00000000E+00  0.00000000E+00  0.00000000E+00
  0.00000000E+00  0.00000000E+00  0.00000000E+00
  0.00000000E+00  0.00000000E+00  0.00000000E+00
  0.00000000E+00  0.00000000E+00  0.00000000E+00
  0.00000000E+00  0.00000000E+00  0.00000000E+00
  0.00000000E+00  0.00000000E+00  0.00000000E+00
  0.00000000E+00  0.00000000E+00  0.00000000E+00
  0.00000000E+00  0.00000000E+00  0.00000000E+00
  0.00000000E+00  0.00000000E+00  0.00000000E+00
  0.00000000E+00  0.00000000E+00  0.00000000E+00
  0.00000000E+00  0.00000000E+00  0.00000000E+00
  0.00000000E+00  0.00000000E+00  0.00000000E+00
  0.00000000E+00  0.00000000E+00  0.00000000E+00
  0.00000000E+00  0.00000000E+00  0.00000000E+00
  0.00000000E+00  0.00000000E+00  0.00000000E+00
  0.00000000E+00  0.00000000E+00  0.00000000E+00
  0.00000000E+00  0.00000000E+00  0.00000000E+00
  0.00000000E+00  0.00000000E+00  0.00000000E+00
  0.00000000E+00  0.00000000E+00  0.00000000E+00
  0.00000000E+00  0.00000000E+00  0.00000000E+00
  0.00000000E+00  0.00000000E+00  0.00000000E+00
  0.00000000E+00  0.00000000E+00  0.00000000E+00
  0.00000000E+00  0.00000000E+00  0.00000000E+00
  0.00000000E+00  0.00000000E+00  0.00000000E+00
  0.00000000E+00  0.00000000E+00  0.00000000E+00
