title                                   
    1.000000000000000     
     9.4577994141877486    0.0344914864464119   -0.0007718223811029
     0.0344535862874694    9.4443753305316758   -0.0465458802950686
    -0.0004779900823105   -0.0310885082329367    6.3259918190584994
   Cr   Mo   V    W    Zr
     7     7     7     8     7
Direct
  0.4983824006179310  0.1766052709299807  0.2570400567402341
  0.1528674063598269  0.1834303535447062  0.7519126929678042
  0.0050944290325559  0.6646738345801692  0.5079308768248756
  0.3358717105505197  0.6590194873459838  0.0075879012742934
  0.8463461855779163  0.4971648319787860  0.7505526966023718
  0.1644303800842686  0.5018936594491907  0.7534295799279281
  0.0021344724256994  0.3363858156042238 -0.0181198293325940
  0.8321122835661572  0.1696058320757588  0.2505705048961527
 -0.0067698655974702  0.0006865917706346  0.0000905526714609
  0.6673362177530088  0.6692567147314147  0.5073644571872032
  0.1631990417162861  0.8212099760469873  0.2568189239984889
  0.0021493302402593  0.3385224664825159  0.5183828496100020
  0.6658642557795867  0.3345452246627328  0.5006784604799102
  0.0065278131925101  0.6598120302800633 -0.0055870084813708
  0.1690342973271491  0.5031801708077722  0.2470313708556115
  0.8422749724561982  0.8322766315633006  0.2692298900982780
  0.4966445801991612  0.8213981714671855  0.7310578321209353
  0.3378955076696834 -0.0090481180050995  0.4824537724170333
  0.6653044153687010  0.3347560375076865 -0.0001845726097399
  0.8469044909507728  0.8308535158886405  0.7386284962137807
  0.3346709795771233  0.6611775786630388  0.4954114526771660
  0.6691075980276258 -0.0034178968835227  0.4929388986616960
  0.4932151669256311  0.5010604290038477  0.7493832004151836
  0.3268788091470012  0.3437707336018256  0.4988149813933174
 -0.0056828998047821  0.0001204198015151  0.5034016797672595
  0.8348347156824425  0.1743235525014941  0.7506340394184519
  0.3254790901345510  0.3427406734659325 -0.0040465380554429
  0.4947666796589814  0.4991220994161054  0.2511836281164473
  0.4941992959538556  0.8258142408772203  0.2621648837622496
  0.1606698317743021  0.1712002056434550  0.2486065283927562
  0.4941975738342574  0.1697993869944301  0.7382314793824089
  0.6658770388005126 -0.0025410621741821  0.0023896554445730
  0.8439904628776873  0.4990782267222101  0.2559057617092172
  0.1693484398720010  0.8244325087414963  0.7483460201522253
  0.3332348273965687 -0.0011184336126410  0.0040391944035209
  0.6716080648715201  0.6682088385251422 -0.0042743701036902
 
  0.00000000E+00  0.00000000E+00  0.00000000E+00
  0.00000000E+00  0.00000000E+00  0.00000000E+00
  0.00000000E+00  0.00000000E+00  0.00000000E+00
  0.00000000E+00  0.00000000E+00  0.00000000E+00
  0.00000000E+00  0.00000000E+00  0.00000000E+00
  0.00000000E+00  0.00000000E+00  0.00000000E+00
  0.00000000E+00  0.00000000E+00  0.00000000E+00
  0.00000000E+00  0.00000000E+00  0.00000000E+00
  0.00000000E+00  0.00000000E+00  0.00000000E+00
  0.00000000E+00  0.00000000E+00  0.00000000E+00
  0.00000000E+00  0.00000000E+00  0.00000000E+00
  0.00000000E+00  0.00000000E+00  0.00000000E+00
  0.00000000E+00  0.00000000E+00  0.00000000E+00
  0.00000000E+00  0.00000000E+00  0.00000000E+00
  0.00000000E+00  0.00000000E+00  0.00000000E+00
  0.00000000E+00  0.00000000E+00  0.00000000E+00
  0.00000000E+00  0.00000000E+00  0.00000000E+00
  0.00000000E+00  0.00000000E+00  0.00000000E+00
  0.00000000E+00  0.00000000E+00  0.00000000E+00
  0.00000000E+00  0.00000000E+00  0.00000000E+00
  0.00000000E+00  0.00000000E+00  0.00000000E+00
  0.00000000E+00  0.00000000E+00  0.00000000E+00
  0.00000000E+00  0.00000000E+00  0.00000000E+00
  0.00000000E+00  0.00000000E+00  0.00000000E+00
  0.00000000E+00  0.00000000E+00  0.00000000E+00
  0.00000000E+00  0.00000000E+00  0.00000000E+00
  0.00000000E+00  0.00000000E+00  0.00000000E+00
  0.00000000E+00  0.00000000E+00  0.00000000E+00
  0.00000000E+00  0.00000000E+00  0.00000000E+00
  0.00000000E+00  0.00000000E+00  0.00000000E+00
  0.00000000E+00  0.00000000E+00  0.00000000E+00
  0.00000000E+00  0.00000000E+00  0.00000000E+00
  0.00000000E+00  0.00000000E+00  0.00000000E+00
  0.00000000E+00  0.00000000E+00  0.00000000E+00
  0.00000000E+00  0.00000000E+00  0.00000000E+00
  0.00000000E+00  0.00000000E+00  0.00000000E+00
