title                                   
    1.000000000000000     
     9.7752661553801410    0.0239051931530041    0.0164064382358484
     0.0255788138567164    9.8657573183884288   -0.1163669778395520
     0.0115399047332945   -0.0774085296889602    6.5414376572096593
   Cr   Hf   Nb   Ta
     9     9     9     9
Direct
  0.1979999056265158  0.4907338534203595  0.7369022861629270
  0.3484896071792901  0.6540451702299946  0.5165328875343627
  0.8399097274734745  0.1835093786279946  0.7531868796197789
  0.6544793931873374  0.3472214529329673  0.5079485077273568
  0.8415098735863370  0.8143805323606766  0.7290448552676505
 -0.0261252341006308  0.6805503614089634  0.5217697116154596
  0.4950857266303016  0.4986778803604193  0.7317454836157642
  0.3398373652928457  0.3506475888679771  0.5249829100493818
  0.6665765733307906  0.6624371068414915 -0.0030107866590943
  0.6717713506306434 -0.0016154882394770  0.5088658140820435
  0.1684210277090287  0.5071394398688140  0.2933205281259664
  0.6752163275768708 -0.0032612010402702 -0.0189620925141917
  0.1599961285507942  0.8211352613999054  0.2604198834190884
  0.8312568784801465  0.1804615302521563  0.2598081066042216
  0.0040345213562554  0.6496186625739094 -0.0334091823162636
  0.3430710017595272  0.0004374615567914  0.0020128020261898
  0.1682370418424967  0.1754130378220430  0.7500634600637905
  0.3461412267333265 -0.0004240648512097  0.4896857321729507
  0.3346205358951325  0.6509882955813192 -0.0130399823519085
  0.5111396796147349  0.8088837348869047  0.2331177022860497
  0.3322466680784327  0.3428244915837828 -0.0013177882740643
  0.4989047867466553  0.1914451439570216  0.7378478774554846
  0.6609108614824835  0.3355108022649390 -0.0109661448133353
 -0.0082427808286382  0.3431428409456418  0.5272421043200873
  0.5057975450429441  0.1926215486363928  0.2580700105540321
 -0.0048375556873132  0.3391414399678676 -0.0021271385577103
 -0.0056977202055730 -0.0042850752945212 -0.0110021609272921
  0.8219446267627847  0.5006406753230439  0.2514357173956028
  0.4970962988091525  0.8081115016342928  0.7480453200984486
  0.8091399037251213  0.4985144175113810  0.7467459573519992
 -0.0136087351675167 -0.0020168306091800  0.5166148787450147
  0.4973390664491937  0.5011678541958343  0.2602963715741307
  0.1581865809540942  0.1776244688580178  0.2617826770438045
  0.6678212641435420  0.6678459005577388  0.5014528999682575
  0.8404639965348661  0.8222928783129094  0.2447143808700205
  0.1708665348045535  0.8144379472931069  0.7201795306639965
 
  0.00000000E+00  0.00000000E+00  0.00000000E+00
  0.00000000E+00  0.00000000E+00  0.00000000E+00
  0.00000000E+00  0.00000000E+00  0.00000000E+00
  0.00000000E+00  0.00000000E+00  0.00000000E+00
  0.00000000E+00  0.00000000E+00  0.00000000E+00
  0.00000000E+00  0.00000000E+00  0.00000000E+00
  0.00000000E+00  0.00000000E+00  0.00000000E+00
  0.00000000E+00  0.00000000E+00  0.00000000E+00
  0.00000000E+00  0.00000000E+00  0.00000000E+00
  0.00000000E+00  0.00000000E+00  0.00000000E+00
  0.00000000E+00  0.00000000E+00  0.00000000E+00
  0.00000000E+00  0.00000000E+00  0.00000000E+00
  0.00000000E+00  0.00000000E+00  0.00000000E+00
  0.00000000E+00  0.00000000E+00  0.00000000E+00
  0.00000000E+00  0.00000000E+00  0.00000000E+00
  0.00000000E+00  0.00000000E+00  0.00000000E+00
  0.00000000E+00  0.00000000E+00  0.00000000E+00
  0.00000000E+00  0.00000000E+00  0.00000000E+00
  0.00000000E+00  0.00000000E+00  0.00000000E+00
  0.00000000E+00  0.00000000E+00  0.00000000E+00
  0.00000000E+00  0.00000000E+00  0.00000000E+00
  0.00000000E+00  0.00000000E+00  0.00000000E+00
  0.00000000E+00  0.00000000E+00  0.00000000E+00
  0.00000000E+00  0.00000000E+00  0.00000000E+00
  0.00000000E+00  0.00000000E+00  0.00000000E+00
  0.00000000E+00  0.00000000E+00  0.00000000E+00
  0.00000000E+00  0.00000000E+00  0.00000000E+00
  0.00000000E+00  0.00000000E+00  0.00000000E+00
  0.00000000E+00  0.00000000E+00  0.00000000E+00
  0.00000000E+00  0.00000000E+00  0.00000000E+00
  0.00000000E+00  0.00000000E+00  0.00000000E+00
  0.00000000E+00  0.00000000E+00  0.00000000E+00
  0.00000000E+00  0.00000000E+00  0.00000000E+00
  0.00000000E+00  0.00000000E+00  0.00000000E+00
  0.00000000E+00  0.00000000E+00  0.00000000E+00
  0.00000000E+00  0.00000000E+00  0.00000000E+00
