title                                   
    1.000000000000000     
     9.8389100898518116    0.0613111682538952    0.0003920701650575
     0.0614032501845213    9.8038145535105627   -0.0155536430311581
     0.0002809980699843   -0.0103954024798498    6.5714835499890238
   Mo   Nb   Zr
    18    10     8
Direct
  0.6660842701299384  0.3295128780099302 -0.0170689521456740
  0.8273087620305516  0.8349053125685352  0.7510848150409418
  0.6747768568508613  0.6700135300534348  0.5063224330675531
  0.3296220208308825  0.6632340968227506  0.0046882387277498
  0.6711860010041244 -0.0019630965778763  0.5089871673257954
  0.6728291067236697 -0.0038095605230173 -0.0045011909098304
 -0.0004230316804503  0.3372388428062491  0.5099479470767688
  0.8305265250708087  0.4942819567201365  0.7546693260204121
  0.8323496301288741  0.1631568508182154  0.7512667203077659
  0.8276140531825288  0.8347842944434513  0.2468690902513600
 -0.0055496156209923 -0.0043869341474645  0.5019836120639113
  0.3306193285352622  0.3371190753029613  0.5098899180296648
  0.3298368358707828  0.6648814629789623  0.4925759573166230
 -0.0004408997494544  0.3359213732278364 -0.0120441120795069
  0.1695834264835915  0.4989307975542223  0.2443124846061140
  0.6727972529743862  0.6701748730140321 -0.0012960683156345
  0.3373367348943826  0.0049279137119140 -0.0007980405552183
  0.5012489409239661  0.1665708840310748  0.7529388304259236
  0.3293063132049358  0.3379373171409745 -0.0083130795818414
  0.5033035500101863  0.8327991110471782  0.2494648366876519
 -0.0032215575449648  0.6656239512957068 -0.0005986390277739
  0.4997741414073431  0.5043409461201497  0.7524474253001897
  0.1735347257438525  0.8356495916087668  0.2461588793860239
  0.6673950813657162  0.3294120619901466  0.5238084262526167
  0.1621869068712364  0.1690520831008782  0.7462918616273811
  0.3389553149740944  0.0057188965613005  0.5007931912415389
  0.1687949352444796  0.4961650926997198  0.7474082313817682
 -0.0083850383783668 -0.0062203597279190 -0.0062630973550605
  0.5033225338816443  0.8318835279423283  0.7537733204961192
  0.5020549239165808  0.1665105412349546  0.2497129530761082
  0.1619319947457151  0.1696725884784099  0.2504480968911555
  0.8287654068623399  0.4939703434805374  0.2462220293016371
 -0.0021835234113647  0.6656327907051606  0.4946929451643272
  0.8333980166220779  0.1647817566599760  0.2522686946199592
  0.1733670608579722  0.8360438750054677  0.7495893848618291
  0.5003930150428056  0.5055313338409166  0.2522663634216483
 
  0.00000000E+00  0.00000000E+00  0.00000000E+00
  0.00000000E+00  0.00000000E+00  0.00000000E+00
  0.00000000E+00  0.00000000E+00  0.00000000E+00
  0.00000000E+00  0.00000000E+00  0.00000000E+00
  0.00000000E+00  0.00000000E+00  0.00000000E+00
  0.00000000E+00  0.00000000E+00  0.00000000E+00
  0.00000000E+00  0.00000000E+00  0.00000000E+00
  0.00000000E+00  0.00000000E+00  0.00000000E+00
  0.00000000E+00  0.00000000E+00  0.00000000E+00
  0.00000000E+00  0.00000000E+00  0.00000000E+00
  0.00000000E+00  0.00000000E+00  0.00000000E+00
  0.00000000E+00  0.00000000E+00  0.00000000E+00
  0.00000000E+00  0.00000000E+00  0.00000000E+00
  0.00000000E+00  0.00000000E+00  0.00000000E+00
  0.00000000E+00  0.00000000E+00  0.00000000E+00
  0.00000000E+00  0.00000000E+00  0.00000000E+00
  0.00000000E+00  0.00000000E+00  0.00000000E+00
  0.00000000E+00  0.00000000E+00  0.00000000E+00
  0.00000000E+00  0.00000000E+00  0.00000000E+00
  0.00000000E+00  0.00000000E+00  0.00000000E+00
  0.00000000E+00  0.00000000E+00  0.00000000E+00
  0.00000000E+00  0.00000000E+00  0.00000000E+00
  0.00000000E+00  0.00000000E+00  0.00000000E+00
  0.00000000E+00  0.00000000E+00  0.00000000E+00
  0.00000000E+00  0.00000000E+00  0.00000000E+00
  0.00000000E+00  0.00000000E+00  0.00000000E+00
  0.00000000E+00  0.00000000E+00  0.00000000E+00
  0.00000000E+00  0.00000000E+00  0.00000000E+00
  0.00000000E+00  0.00000000E+00  0.00000000E+00
  0.00000000E+00  0.00000000E+00  0.00000000E+00
  0.00000000E+00  0.00000000E+00  0.00000000E+00
  0.00000000E+00  0.00000000E+00  0.00000000E+00
  0.00000000E+00  0.00000000E+00  0.00000000E+00
  0.00000000E+00  0.00000000E+00  0.00000000E+00
  0.00000000E+00  0.00000000E+00  0.00000000E+00
  0.00000000E+00  0.00000000E+00  0.00000000E+00
