title                                   
    1.000000000000000     
     9.4526973274125954   -0.0170813851601689   -0.0180515137010721
    -0.0170866178124073    9.4482469688820387    0.0186323368267896
    -0.0120107034025703    0.0123980451891218    6.2908292138728621
   Mo   V    W    Zr
    19    10     4     3
Direct
  0.5009043121180525  0.4998472850363226  0.2518557217746610
  0.8291388354614856  0.8359456068073458  0.2562548397886514
  0.8365759670044626  0.1663167521390287  0.2506904504875935
 -0.0030966846870773  0.3288057869654538  0.0024862178399263
 -0.0013331372210090  0.0017644624816446 -0.0009766844873682
 -0.0001168760768012  0.0010603193260371  0.5027915197422588
  0.3307239503308848 -0.0024342939616809 -0.0048288834902674
  0.8309454403188786  0.4975605946848496  0.2563798968008831
  0.6710386404281456 -0.0030508505281683  0.5102314293660131
  0.8285602353489500  0.4966403620071089  0.7443902282970569
  0.3359232137436723  0.6694432511214878  0.0036053754482910
  0.6670731252425586  0.6671223395263127  0.0002004738541434
  0.6698860446899920  0.3322015660664290 -0.0050563192421997
  0.1676804580066497  0.8379623482170120  0.2558042718834040
  0.1681503729611772  0.4935299459684859  0.2544018065499151
  0.6701453144853033  0.3347096781521344  0.5042633024860945
  0.3333563130318603  0.3319890064279047 -0.0021182068097475
  0.3366573202170299  0.6693529019741942  0.4991654582911817
  0.3296713228901154 -0.0010702753297598  0.5040195215701552
  0.5016031750963061  0.1667973275906457  0.7519288587550401
 -0.0029348401506848  0.3288215413098410  0.4941281281366305
 -0.0077604046723110  0.6718496956811595  0.4928231732523308
  0.6684974135296076  0.6662957189874233  0.5014151812233493
  0.8294927705509543  0.8402884722774335  0.7463574299623850
  0.6724768930098433 -0.0031502759392023 -0.0053754291032008
  0.8333998561441838  0.1643197719548658  0.7507428808324020
  0.1713599719019935  0.8412935918282134  0.7457746754014292
  0.1654333499348437  0.1665358850767275  0.2495578178274690
  0.3325120525315277  0.3326904167493137  0.4971141821109332
  0.5015750839427552  0.8313306917737769  0.2515652072394751
  0.4999476372729600  0.4990377982485491  0.7477244178287601
  0.5025788878492876  0.8340976229652518  0.7515914675160442
  0.1655698414608051  0.1673669049949986  0.7463921459102252
  0.1665282351647583  0.4993608238177743  0.7431010845274993
  0.5001340471046054  0.1634760672677325  0.2488281236974196
 -0.0022981389657669  0.6718911583333517  0.0027702347311599
 
  0.00000000E+00  0.00000000E+00  0.00000000E+00
  0.00000000E+00  0.00000000E+00  0.00000000E+00
  0.00000000E+00  0.00000000E+00  0.00000000E+00
  0.00000000E+00  0.00000000E+00  0.00000000E+00
  0.00000000E+00  0.00000000E+00  0.00000000E+00
  0.00000000E+00  0.00000000E+00  0.00000000E+00
  0.00000000E+00  0.00000000E+00  0.00000000E+00
  0.00000000E+00  0.00000000E+00  0.00000000E+00
  0.00000000E+00  0.00000000E+00  0.00000000E+00
  0.00000000E+00  0.00000000E+00  0.00000000E+00
  0.00000000E+00  0.00000000E+00  0.00000000E+00
  0.00000000E+00  0.00000000E+00  0.00000000E+00
  0.00000000E+00  0.00000000E+00  0.00000000E+00
  0.00000000E+00  0.00000000E+00  0.00000000E+00
  0.00000000E+00  0.00000000E+00  0.00000000E+00
  0.00000000E+00  0.00000000E+00  0.00000000E+00
  0.00000000E+00  0.00000000E+00  0.00000000E+00
  0.00000000E+00  0.00000000E+00  0.00000000E+00
  0.00000000E+00  0.00000000E+00  0.00000000E+00
  0.00000000E+00  0.00000000E+00  0.00000000E+00
  0.00000000E+00  0.00000000E+00  0.00000000E+00
  0.00000000E+00  0.00000000E+00  0.00000000E+00
  0.00000000E+00  0.00000000E+00  0.00000000E+00
  0.00000000E+00  0.00000000E+00  0.00000000E+00
  0.00000000E+00  0.00000000E+00  0.00000000E+00
  0.00000000E+00  0.00000000E+00  0.00000000E+00
  0.00000000E+00  0.00000000E+00  0.00000000E+00
  0.00000000E+00  0.00000000E+00  0.00000000E+00
  0.00000000E+00  0.00000000E+00  0.00000000E+00
  0.00000000E+00  0.00000000E+00  0.00000000E+00
  0.00000000E+00  0.00000000E+00  0.00000000E+00
  0.00000000E+00  0.00000000E+00  0.00000000E+00
  0.00000000E+00  0.00000000E+00  0.00000000E+00
  0.00000000E+00  0.00000000E+00  0.00000000E+00
  0.00000000E+00  0.00000000E+00  0.00000000E+00
  0.00000000E+00  0.00000000E+00  0.00000000E+00
