title                                   
    1.000000000000000     
     9.2017633415228079    0.0301866272096207    0.0296683148111326
     0.0300827203853593    9.2457490365001131    0.0817218629333674
     0.0196289079725602    0.0545170374810045    6.1293022773260963
   Cr   Ta   V 
    12    12    12
Direct
  0.6666129987130129  0.3393489527468553 -0.0127892330787652
  0.3346325976667460  0.3346896525877585  0.4967124716492763
  0.1664761938388660  0.8317426310998360  0.7511015087499590
  0.0051705263277964  0.6687740031202858  0.5036997681909693
  0.8287217891185672  0.1720375707400815  0.7547332715341414
  0.0046138190018538  0.0019878466072651 -0.0100054393614040
  0.3331690973713293  0.3329201564870473  0.0016589334401075
  0.8335732251155595  0.4954474534503104  0.2462513137289336
  0.4971535587260193  0.4902562069999092  0.2508592759831541
  0.8336957504211269  0.4931420333752408  0.7560644978618477
 -0.0058148370532330  0.3350312879481311 -0.0065593333181180
  0.4982112648576520  0.8342293051637809  0.2502404388550242
  0.6644046331271781  0.6581027627377366  0.0034864432803114
  0.8414190442961631  0.8391009916153256  0.2469421793126349
 -0.0077520869647270  0.3374305039542725  0.4994211801181051
  0.3408243952569440  0.6706345652588027  0.4948609813953157
  0.6613205123452607  0.0018638556832090  0.5110999394150781
  0.0078821567373887  0.0058470276217624  0.5119186287993102
  0.3280809558533210 -0.0086223211964736 -0.0022887466722161
  0.6694160759954255  0.6584227069057161  0.5036385874380008
  0.4937660487096740  0.1773302925747492  0.2445286874289891
  0.1741426105469271  0.4928377548093615  0.7541696550539794
  0.8295241796422383  0.1726623505780440  0.2258582281424095
  0.0026166398648328  0.6617025816052172  0.0008010678254004
  0.6612902687475551 -0.0005766030879122 -0.0130024301750893
  0.3282248146197043 -0.0053428190503393  0.5044673500168838
  0.8401329428973775  0.8350204943909553  0.7547850025134677
  0.3397782048435092  0.6669629335801155  0.0103199769601339
  0.1673388969643576  0.1719750097167404  0.7575382294602658
  0.4916364638983600  0.1781595679320331  0.7493446822158611
  0.1744227150423145  0.4938463112613182  0.2489978610799733
  0.6672838508713669  0.3416823521139619  0.5019951634060755
  0.4986964254718855  0.8326302250207063  0.7557528673124426
  0.1637061204977966  0.8306416083569259  0.2551909101136876
  0.1672206288992141  0.1747559990927643  0.2397261445755813
  0.4984075177306372  0.4833247481985045  0.7584799367482709
 
  0.00000000E+00  0.00000000E+00  0.00000000E+00
  0.00000000E+00  0.00000000E+00  0.00000000E+00
  0.00000000E+00  0.00000000E+00  0.00000000E+00
  0.00000000E+00  0.00000000E+00  0.00000000E+00
  0.00000000E+00  0.00000000E+00  0.00000000E+00
  0.00000000E+00  0.00000000E+00  0.00000000E+00
  0.00000000E+00  0.00000000E+00  0.00000000E+00
  0.00000000E+00  0.00000000E+00  0.00000000E+00
  0.00000000E+00  0.00000000E+00  0.00000000E+00
  0.00000000E+00  0.00000000E+00  0.00000000E+00
  0.00000000E+00  0.00000000E+00  0.00000000E+00
  0.00000000E+00  0.00000000E+00  0.00000000E+00
  0.00000000E+00  0.00000000E+00  0.00000000E+00
  0.00000000E+00  0.00000000E+00  0.00000000E+00
  0.00000000E+00  0.00000000E+00  0.00000000E+00
  0.00000000E+00  0.00000000E+00  0.00000000E+00
  0.00000000E+00  0.00000000E+00  0.00000000E+00
  0.00000000E+00  0.00000000E+00  0.00000000E+00
  0.00000000E+00  0.00000000E+00  0.00000000E+00
  0.00000000E+00  0.00000000E+00  0.00000000E+00
  0.00000000E+00  0.00000000E+00  0.00000000E+00
  0.00000000E+00  0.00000000E+00  0.00000000E+00
  0.00000000E+00  0.00000000E+00  0.00000000E+00
  0.00000000E+00  0.00000000E+00  0.00000000E+00
  0.00000000E+00  0.00000000E+00  0.00000000E+00
  0.00000000E+00  0.00000000E+00  0.00000000E+00
  0.00000000E+00  0.00000000E+00  0.00000000E+00
  0.00000000E+00  0.00000000E+00  0.00000000E+00
  0.00000000E+00  0.00000000E+00  0.00000000E+00
  0.00000000E+00  0.00000000E+00  0.00000000E+00
  0.00000000E+00  0.00000000E+00  0.00000000E+00
  0.00000000E+00  0.00000000E+00  0.00000000E+00
  0.00000000E+00  0.00000000E+00  0.00000000E+00
  0.00000000E+00  0.00000000E+00  0.00000000E+00
  0.00000000E+00  0.00000000E+00  0.00000000E+00
  0.00000000E+00  0.00000000E+00  0.00000000E+00
