title                                   
    1.000000000000000     
    10.1708547519207269    0.1518817698601931    0.1130389063013767
     0.1516682897676828   10.1339991055676268   -0.0004943889211312
     0.0761878364097050    0.0004675869048739    6.9004113947216039
   Cr   Hf   Mo   Nb   Zr
     3     4     3    11    15
Direct
  0.7863951424868482  0.1475267951508868  0.2050362611424388
  0.6573913594603441  0.0057259717685769  0.5184768702767866
  0.1993859585109737  0.1777316387716819  0.2635869711352992
  0.1540711327989026  0.4857787882499695  0.7687028937995638
  0.5164534059692043  0.4912136605915101  0.2236153380596406
  0.5058555673792415  0.8342995085315834  0.2673019145401377
  0.3311208222604330  0.6684390864108661  0.0006202591418959
  0.1795765567627195  0.4950478858315921  0.2502516200887804
  0.6741822395735396  0.3208091701041645 -0.0126824917848310
  0.8229069041419917  0.5077576615229250  0.2454580544318237
  0.8213933711635585  0.1630048215041395  0.7620412533973517
  0.5181910429816515  0.4865768020309557  0.7718559312938457
  0.6715621818279215  0.6493818632537146  0.5013738930524125
  0.6588765003532763 -0.0011656560092542 -0.0153121972761887
  0.6676807954777613  0.6624486102306927 -0.0083117916199485
  0.3297544933556635  0.0114287473727423  0.4949118248186287
  0.5078967311702739  0.1559114419729896  0.7382267436561889
  0.0103227260600288  0.3392232900372760  0.4717288227962227
  0.5156514454338614  0.8433152470489063  0.7336563478891349
  0.1777725965418027  0.8460894832825444  0.2829640860184314
  0.3272798958659482  0.3310019169241531  0.0172894607368440
  0.1476694331407196  0.8505708406396740  0.7274774907712577
  0.5074406846480503  0.1599975432393907  0.2471287465223686
  0.0058843400178941  0.6557389867419434  0.4735152872970468
  0.3243312185221720  0.0025820805495680  0.0059531578156417
  0.8426026888674195  0.4895932601317303  0.7581498500238097
  0.1590076456363048  0.1795715636940941  0.7461863781627248
  0.8262514248235163  0.8375471556216669  0.7398432179848612
 -0.0124617598572445  0.0457220909789860  0.4527121624324933
  0.0035022287626587  0.6679279005546831  0.0306602593242164
  0.3356918703842811  0.3372633863987266  0.4950443908102171
  0.6946289190235454  0.3206356246761799  0.4816366310992735
 -0.0079021117661241  0.3146350761109873  0.0585338026947312
 -0.0053423789366634  0.0122050690898374  0.0232051052728212
  0.3374531801746583  0.6606725116611245  0.5124748441778869
  0.8075217469828653  0.8437901753287925  0.2666866100161918
 
  0.00000000E+00  0.00000000E+00  0.00000000E+00
  0.00000000E+00  0.00000000E+00  0.00000000E+00
  0.00000000E+00  0.00000000E+00  0.00000000E+00
  0.00000000E+00  0.00000000E+00  0.00000000E+00
  0.00000000E+00  0.00000000E+00  0.00000000E+00
  0.00000000E+00  0.00000000E+00  0.00000000E+00
  0.00000000E+00  0.00000000E+00  0.00000000E+00
  0.00000000E+00  0.00000000E+00  0.00000000E+00
  0.00000000E+00  0.00000000E+00  0.00000000E+00
  0.00000000E+00  0.00000000E+00  0.00000000E+00
  0.00000000E+00  0.00000000E+00  0.00000000E+00
  0.00000000E+00  0.00000000E+00  0.00000000E+00
  0.00000000E+00  0.00000000E+00  0.00000000E+00
  0.00000000E+00  0.00000000E+00  0.00000000E+00
  0.00000000E+00  0.00000000E+00  0.00000000E+00
  0.00000000E+00  0.00000000E+00  0.00000000E+00
  0.00000000E+00  0.00000000E+00  0.00000000E+00
  0.00000000E+00  0.00000000E+00  0.00000000E+00
  0.00000000E+00  0.00000000E+00  0.00000000E+00
  0.00000000E+00  0.00000000E+00  0.00000000E+00
  0.00000000E+00  0.00000000E+00  0.00000000E+00
  0.00000000E+00  0.00000000E+00  0.00000000E+00
  0.00000000E+00  0.00000000E+00  0.00000000E+00
  0.00000000E+00  0.00000000E+00  0.00000000E+00
  0.00000000E+00  0.00000000E+00  0.00000000E+00
  0.00000000E+00  0.00000000E+00  0.00000000E+00
  0.00000000E+00  0.00000000E+00  0.00000000E+00
  0.00000000E+00  0.00000000E+00  0.00000000E+00
  0.00000000E+00  0.00000000E+00  0.00000000E+00
  0.00000000E+00  0.00000000E+00  0.00000000E+00
  0.00000000E+00  0.00000000E+00  0.00000000E+00
  0.00000000E+00  0.00000000E+00  0.00000000E+00
  0.00000000E+00  0.00000000E+00  0.00000000E+00
  0.00000000E+00  0.00000000E+00  0.00000000E+00
  0.00000000E+00  0.00000000E+00  0.00000000E+00
  0.00000000E+00  0.00000000E+00  0.00000000E+00
