title                                   
    1.000000000000000     
     9.5635070806478133    0.0011197418814721    0.0002324231037724
     0.0011189568941943    9.5795346890514885   -0.0080219059391637
     0.0001551390834678   -0.0053525501692405    6.3789061667399327
   Hf   Mo   Ti   W 
     3    19     4    10
Direct
  0.3347455409967821  0.6678626841562754 -0.0012537102216276
 -0.0038394475702002 -0.0006492871272783  0.0036964979153792
  0.3346308219625891 -0.0000009842299453  0.4958560427657704
  0.1630146613500643  0.8292188747742164  0.2526422526178085
  0.6674225912129049  0.3325041479741140  0.4998569857907755
  0.5066466974053518  0.8308470980061463  0.2508671843013771
  0.3330659382498729  0.3346044774347144 -0.0007248642953527
  0.6675142285601289  0.6676377993168446  0.5011806713078018
 -0.0004116969474123  0.3331424582108190  0.0001926557448473
  0.6665640844856449 -0.0003941677278135  0.5014715818242953
  0.1672797032118840  0.1711628545592313  0.2478386136792149
  0.6679450725343847  0.6690579007960652  0.0007833053500351
  0.8310519404156751  0.8276652219095701  0.7472741816108578
  0.8304667668534333  0.1696562783131900  0.2533144250423672
 -0.0014346182272514  0.6648148999957660  0.4988444937243961
  0.5048040492645948  0.8340594755366355  0.7486254543498241
  0.6668902575449472  0.3315143956997571  0.0008852278532876
  0.8314904710908053  0.5004649682271538  0.2499843644618134
  0.5042047846427542  0.4978977477179825  0.7479968489706486
  0.8309086711370931  0.8288880727578937  0.2566225888039076
  0.3331328417354193  0.6665682797438390  0.5011063947272725
  0.5028487234863751  0.1724787129936304  0.2475758158317472
  0.6673297724546896  0.0007680345353643  0.0024915109171905
  0.8318531572441742  0.5001812169919306  0.7498250840282714
  0.5042966783725875  0.4973618341861838  0.2538424219576225
 -0.0000153697679786  0.3316150385422169  0.4947370858452886
  0.0001715023437224  0.0010324555659376  0.5005679165257704
  0.3320630609055905  0.3319430903276092  0.5007252562532082
  0.8296237815215121  0.1719227917533896  0.7471979335679578
  0.0005572052156755  0.6667473118180340  0.0012718596323667
  0.1672526206956869  0.1714873705483078  0.7507226820547361
  0.1623129033579769  0.4983485294223627  0.7474748778282172
  0.1628469014491044  0.8304369092161926  0.7453291813528791
  0.3339843098273365  0.0012284822043508 -0.0027980356719159
  0.1663832339823892  0.4972761795065042  0.2513154942405467
  0.5023981590016918  0.1706488463428082  0.7526597193114134
 
  0.00000000E+00  0.00000000E+00  0.00000000E+00
  0.00000000E+00  0.00000000E+00  0.00000000E+00
  0.00000000E+00  0.00000000E+00  0.00000000E+00
  0.00000000E+00  0.00000000E+00  0.00000000E+00
  0.00000000E+00  0.00000000E+00  0.00000000E+00
  0.00000000E+00  0.00000000E+00  0.00000000E+00
  0.00000000E+00  0.00000000E+00  0.00000000E+00
  0.00000000E+00  0.00000000E+00  0.00000000E+00
  0.00000000E+00  0.00000000E+00  0.00000000E+00
  0.00000000E+00  0.00000000E+00  0.00000000E+00
  0.00000000E+00  0.00000000E+00  0.00000000E+00
  0.00000000E+00  0.00000000E+00  0.00000000E+00
  0.00000000E+00  0.00000000E+00  0.00000000E+00
  0.00000000E+00  0.00000000E+00  0.00000000E+00
  0.00000000E+00  0.00000000E+00  0.00000000E+00
  0.00000000E+00  0.00000000E+00  0.00000000E+00
  0.00000000E+00  0.00000000E+00  0.00000000E+00
  0.00000000E+00  0.00000000E+00  0.00000000E+00
  0.00000000E+00  0.00000000E+00  0.00000000E+00
  0.00000000E+00  0.00000000E+00  0.00000000E+00
  0.00000000E+00  0.00000000E+00  0.00000000E+00
  0.00000000E+00  0.00000000E+00  0.00000000E+00
  0.00000000E+00  0.00000000E+00  0.00000000E+00
  0.00000000E+00  0.00000000E+00  0.00000000E+00
  0.00000000E+00  0.00000000E+00  0.00000000E+00
  0.00000000E+00  0.00000000E+00  0.00000000E+00
  0.00000000E+00  0.00000000E+00  0.00000000E+00
  0.00000000E+00  0.00000000E+00  0.00000000E+00
  0.00000000E+00  0.00000000E+00  0.00000000E+00
  0.00000000E+00  0.00000000E+00  0.00000000E+00
  0.00000000E+00  0.00000000E+00  0.00000000E+00
  0.00000000E+00  0.00000000E+00  0.00000000E+00
  0.00000000E+00  0.00000000E+00  0.00000000E+00
  0.00000000E+00  0.00000000E+00  0.00000000E+00
  0.00000000E+00  0.00000000E+00  0.00000000E+00
  0.00000000E+00  0.00000000E+00  0.00000000E+00
