title                                   
    1.000000000000000     
    10.0835573848517921    0.0226139105837991    0.0163529244009163
     0.0226521723838111   10.1238710165656798   -0.0310586580111708
     0.0107966169599473   -0.0204376777573155    6.8777799974126337
   Hf   Nb   Ti   Zr
    10    19     4     3
Direct
  0.1518472567815910  0.4971482786473593  0.7693166330720894
  0.8296335813768790  0.5055336476289061  0.2214566358517103
 -0.0004737263188262  0.3307031872758969  0.4877581229269138
  0.0017269396625266  0.6731821302225484  0.4939670943906871
  0.3275099454225145  0.6633967871768004  0.5010766846133703
  0.4980782963756211  0.8390086132899116  0.2644244844164176
  0.8465059895212846  0.1706287159034801  0.7793250918755408
  0.6593802405396330  0.0005133299778645 -0.0132198984750605
 -0.0001350019876409 -0.0023133453424126  0.4928013627653471
  0.3454424769302133  0.3315216930458948 -0.0043334253511658
  0.5066906326794030  0.5017952712706476  0.7378702420912164
  0.8339685635645331  0.1693626619473052  0.2279526115338087
  0.8361111239610743  0.5046872044507726  0.7659958292908869
  0.1571258389639271  0.1736392978749737  0.7602455396669566
  0.8209932989598003  0.8250534289016104  0.2445840395006308
  0.6675818591966942  0.6655228125262076  0.5030290473374772
  0.8305163930877782  0.8314009671694591  0.7517306596720842
  0.1544717711022424  0.8283020939992474  0.7713350087982761
  0.5082866626917947  0.8305980882872027  0.7298061031955295
  0.6627412077906540  0.6707278873710781 -0.0170100731501902
 -0.0012213688732353  0.6845603074437199  0.0059501826519395
  0.5142973287372519  0.5056198303957475  0.2490457334090083
  0.1814462990905701  0.1593287124660775  0.2545138004070974
  0.3300590333340244  0.3376855441478109  0.5017659165423124
  0.1660085734829387  0.4911788258660649  0.2438036256444761
  0.1843499270239189  0.8536556523593561  0.2405228405168206
  0.4982967212475599  0.1640745512023073  0.7179123921842185
  0.0127582601952882  0.3239864874893067  0.0252632249479441
  0.6792941520399186 -0.0047196119942504  0.5071309250717428
  0.0046698410903403 -0.0050407056618066  0.0221162490325836
  0.6499669361634361  0.3321003552228279 -0.0122534027167011
  0.3161547314517087 -0.0058412363965906  0.5436092608719718
  0.3287103863780815  0.0028896817515558 -0.0375555808299422
  0.6735455675133155  0.3339050741181711  0.4997671533407217
  0.3377301024090918  0.6647573749870570  0.0004203994559560
  0.4859301584140936  0.1514464049778917  0.2698754854473263
 
  0.00000000E+00  0.00000000E+00  0.00000000E+00
  0.00000000E+00  0.00000000E+00  0.00000000E+00
  0.00000000E+00  0.00000000E+00  0.00000000E+00
  0.00000000E+00  0.00000000E+00  0.00000000E+00
  0.00000000E+00  0.00000000E+00  0.00000000E+00
  0.00000000E+00  0.00000000E+00  0.00000000E+00
  0.00000000E+00  0.00000000E+00  0.00000000E+00
  0.00000000E+00  0.00000000E+00  0.00000000E+00
  0.00000000E+00  0.00000000E+00  0.00000000E+00
  0.00000000E+00  0.00000000E+00  0.00000000E+00
  0.00000000E+00  0.00000000E+00  0.00000000E+00
  0.00000000E+00  0.00000000E+00  0.00000000E+00
  0.00000000E+00  0.00000000E+00  0.00000000E+00
  0.00000000E+00  0.00000000E+00  0.00000000E+00
  0.00000000E+00  0.00000000E+00  0.00000000E+00
  0.00000000E+00  0.00000000E+00  0.00000000E+00
  0.00000000E+00  0.00000000E+00  0.00000000E+00
  0.00000000E+00  0.00000000E+00  0.00000000E+00
  0.00000000E+00  0.00000000E+00  0.00000000E+00
  0.00000000E+00  0.00000000E+00  0.00000000E+00
  0.00000000E+00  0.00000000E+00  0.00000000E+00
  0.00000000E+00  0.00000000E+00  0.00000000E+00
  0.00000000E+00  0.00000000E+00  0.00000000E+00
  0.00000000E+00  0.00000000E+00  0.00000000E+00
  0.00000000E+00  0.00000000E+00  0.00000000E+00
  0.00000000E+00  0.00000000E+00  0.00000000E+00
  0.00000000E+00  0.00000000E+00  0.00000000E+00
  0.00000000E+00  0.00000000E+00  0.00000000E+00
  0.00000000E+00  0.00000000E+00  0.00000000E+00
  0.00000000E+00  0.00000000E+00  0.00000000E+00
  0.00000000E+00  0.00000000E+00  0.00000000E+00
  0.00000000E+00  0.00000000E+00  0.00000000E+00
  0.00000000E+00  0.00000000E+00  0.00000000E+00
  0.00000000E+00  0.00000000E+00  0.00000000E+00
  0.00000000E+00  0.00000000E+00  0.00000000E+00
  0.00000000E+00  0.00000000E+00  0.00000000E+00
