title                                   
    1.000000000000000     
     9.8204995749578625    0.0692845055791269   -0.0041261032907271
     0.0689305042285934    9.7641317490916482    0.0266363251073452
    -0.0030067531210360    0.0180656054961339    6.5266879560307487
   Mo   Ta   Ti   V    Zr
     7     7     8     7     7
Direct
  0.6663236121505648  0.3328722610585876 -0.0199793735624731
 -0.0127210773302076  0.6759922674428626  0.4903863588756485
  0.3329673654256390 -0.0018891135365758  0.4931725646902742
  0.8413425135665755  0.8326759470788704  0.2491471360501207
  0.1613249862161025  0.1507267381439643  0.7496942116260090
  0.8306022742455503  0.1649704454758097  0.7538867174498434
  0.8324528958102971  0.5024705861178729  0.2568436630851326
  0.6780354232858041  0.6681439028808200  0.0058023175404606
  0.4998898230938584  0.1542311429976264  0.2461273905980517
  0.3432028024149352  0.6766983263598652  0.0213889993049709
  0.8463123168662399  0.8280770694945518  0.7527490851817070
 -0.0089065265495320  0.3325535629779180 -0.0140428441609143
  0.6702788775444996  0.6598140165493211  0.5092507496036713
  0.6755456170052939 -0.0033591578906882  0.5071993921202348
  0.3483294358258704  0.6741514086554938  0.4790178391618040
  0.6699174972341282 -0.0027146170974228 -0.0169253530407616
  0.6718429482257151  0.3328953777328132  0.5257619169375806
  0.4959501331031450  0.8399555586045770  0.7454095908605690
 -0.0012634780181987  0.0036847275280132  0.4956310658305367
  0.1671605602265030  0.1443690497109990  0.2376147832814644
 -0.0162257494796001  0.3296563831652021  0.5214494646693035
  0.4998746931104188  0.8465081855485105  0.2499710873325206
  0.8289675106633903  0.5054092560359216  0.7621388663265035
  0.1743799551149601  0.8493640995446451  0.2419181825020700
 -0.0175054588748414  0.6788829031700760  0.0204483063324208
  0.3328284691681475  0.0062109878473414 -0.0096130734414409
  0.4987229968958188  0.1422019986576148  0.7477193878437707
  0.5201881091322919  0.5016262804910533  0.7725247103103887
  0.0008963400970438  0.0042597398441712 -0.0112834801668333
  0.1526038326749458  0.5190956102210356  0.7523264629875646
  0.3324632321957419  0.3227357971596865  0.5208996637577425
  0.8240693003777373  0.1752195335960332  0.2392503655685860
  0.3294999195193615  0.3200825543198129 -0.0223482336853027
  0.5092929884877128  0.4839612629529769  0.2442340444829484
  0.1680771164682567  0.8335431933250166  0.7490711007645445
  0.1532787441058298  0.5149227138356220  0.2531569329812839
 
  0.00000000E+00  0.00000000E+00  0.00000000E+00
  0.00000000E+00  0.00000000E+00  0.00000000E+00
  0.00000000E+00  0.00000000E+00  0.00000000E+00
  0.00000000E+00  0.00000000E+00  0.00000000E+00
  0.00000000E+00  0.00000000E+00  0.00000000E+00
  0.00000000E+00  0.00000000E+00  0.00000000E+00
  0.00000000E+00  0.00000000E+00  0.00000000E+00
  0.00000000E+00  0.00000000E+00  0.00000000E+00
  0.00000000E+00  0.00000000E+00  0.00000000E+00
  0.00000000E+00  0.00000000E+00  0.00000000E+00
  0.00000000E+00  0.00000000E+00  0.00000000E+00
  0.00000000E+00  0.00000000E+00  0.00000000E+00
  0.00000000E+00  0.00000000E+00  0.00000000E+00
  0.00000000E+00  0.00000000E+00  0.00000000E+00
  0.00000000E+00  0.00000000E+00  0.00000000E+00
  0.00000000E+00  0.00000000E+00  0.00000000E+00
  0.00000000E+00  0.00000000E+00  0.00000000E+00
  0.00000000E+00  0.00000000E+00  0.00000000E+00
  0.00000000E+00  0.00000000E+00  0.00000000E+00
  0.00000000E+00  0.00000000E+00  0.00000000E+00
  0.00000000E+00  0.00000000E+00  0.00000000E+00
  0.00000000E+00  0.00000000E+00  0.00000000E+00
  0.00000000E+00  0.00000000E+00  0.00000000E+00
  0.00000000E+00  0.00000000E+00  0.00000000E+00
  0.00000000E+00  0.00000000E+00  0.00000000E+00
  0.00000000E+00  0.00000000E+00  0.00000000E+00
  0.00000000E+00  0.00000000E+00  0.00000000E+00
  0.00000000E+00  0.00000000E+00  0.00000000E+00
  0.00000000E+00  0.00000000E+00  0.00000000E+00
  0.00000000E+00  0.00000000E+00  0.00000000E+00
  0.00000000E+00  0.00000000E+00  0.00000000E+00
  0.00000000E+00  0.00000000E+00  0.00000000E+00
  0.00000000E+00  0.00000000E+00  0.00000000E+00
  0.00000000E+00  0.00000000E+00  0.00000000E+00
  0.00000000E+00  0.00000000E+00  0.00000000E+00
  0.00000000E+00  0.00000000E+00  0.00000000E+00
