title                                   
    1.000000000000000     
    10.0767372099534782   -0.0053146660518790    0.0264626145078008
    -0.0052054668271578    9.9926165741575286    0.0203097913419154
     0.0182236067360038    0.0134550257785806    6.6856155788819347
   Cr   Nb   V    Zr
     4     3    10    19
Direct
  0.8493712096955391  0.8385455160936777  0.7351133237725231
  0.3521006107570183 -0.0287921021905387  0.4994603886461747
  0.3095341249697020  0.3662686757124302  0.0027704950446092
  0.1950952371326767  0.5066851736930755  0.7886805346397352
 -0.0113010233281157  0.6606584880658510  0.5162866737318867
  0.4939487175026256  0.5105621597048392  0.2429451588983663
  0.1762888310488400  0.5142041772735148  0.2416548914078644
  0.8065269896795049  0.5287621706207107  0.7152451474800646
  0.6629462188934730  0.6664126877646410  0.4960665917441118
  0.4804969840841660  0.8192375722687802  0.6956062120173839
 -0.0218822263207512 -0.0141824804082228  0.5448419534390105
 -0.0170998823524139 -0.0186432518815480 -0.0445713503052153
  0.3355664966619342  0.6617975536950874  0.4939083852384457
  0.8564462362112010  0.1460483131802294  0.7485925603011379
  0.3333650306794553  0.6613103492174610  0.0107639245399368
  0.4832104778460806  0.8088879905577714  0.2964472207387758
  0.8203612738073472  0.5325904503961435  0.2749950523553719
  0.6949422781671701  0.3487169258596748 -0.0033664997978713
  0.3723150887074240 -0.0363732480812959  0.0040330127293221
  0.1720703530218212  0.1525647918513797  0.2544054674934867
  0.8633180278069229  0.1469843838839511  0.2462826181560527
 -0.0050025515963928  0.3472860648899996  0.5150802058629312
 -0.0088185407399729  0.6543605805543267 -0.0177186423481433
  0.3078770166260555  0.3532627944499589  0.5101869234303773
  0.0041197138328637  0.3469574628286561 -0.0084660353067382
  0.6766944507022444  0.3424811546366256  0.4926533862036526
  0.4814594304130336  0.1691984794388592  0.7460963905548619
  0.1687502613487950  0.8346362743499065  0.2608729467558803
  0.6656350842250177 -0.0101099467739923  0.5079729265053311
  0.4935427102861327  0.5044039589923123  0.7591539521611210
  0.6575082994085905  0.6933471828955985 -0.0126779651255794
  0.4835551166556137  0.1836267275787382  0.2420116469452329
  0.6777762566627995 -0.0000303021566695 -0.0166741460637987
  0.1773645214887096  0.8272392514548292  0.7408787213615248
  0.1673757769864232  0.1508348855491213  0.7609035891186271
  0.8445413990284658  0.8302591340341182  0.2595643376735449
 
  0.00000000E+00  0.00000000E+00  0.00000000E+00
  0.00000000E+00  0.00000000E+00  0.00000000E+00
  0.00000000E+00  0.00000000E+00  0.00000000E+00
  0.00000000E+00  0.00000000E+00  0.00000000E+00
  0.00000000E+00  0.00000000E+00  0.00000000E+00
  0.00000000E+00  0.00000000E+00  0.00000000E+00
  0.00000000E+00  0.00000000E+00  0.00000000E+00
  0.00000000E+00  0.00000000E+00  0.00000000E+00
  0.00000000E+00  0.00000000E+00  0.00000000E+00
  0.00000000E+00  0.00000000E+00  0.00000000E+00
  0.00000000E+00  0.00000000E+00  0.00000000E+00
  0.00000000E+00  0.00000000E+00  0.00000000E+00
  0.00000000E+00  0.00000000E+00  0.00000000E+00
  0.00000000E+00  0.00000000E+00  0.00000000E+00
  0.00000000E+00  0.00000000E+00  0.00000000E+00
  0.00000000E+00  0.00000000E+00  0.00000000E+00
  0.00000000E+00  0.00000000E+00  0.00000000E+00
  0.00000000E+00  0.00000000E+00  0.00000000E+00
  0.00000000E+00  0.00000000E+00  0.00000000E+00
  0.00000000E+00  0.00000000E+00  0.00000000E+00
  0.00000000E+00  0.00000000E+00  0.00000000E+00
  0.00000000E+00  0.00000000E+00  0.00000000E+00
  0.00000000E+00  0.00000000E+00  0.00000000E+00
  0.00000000E+00  0.00000000E+00  0.00000000E+00
  0.00000000E+00  0.00000000E+00  0.00000000E+00
  0.00000000E+00  0.00000000E+00  0.00000000E+00
  0.00000000E+00  0.00000000E+00  0.00000000E+00
  0.00000000E+00  0.00000000E+00  0.00000000E+00
  0.00000000E+00  0.00000000E+00  0.00000000E+00
  0.00000000E+00  0.00000000E+00  0.00000000E+00
  0.00000000E+00  0.00000000E+00  0.00000000E+00
  0.00000000E+00  0.00000000E+00  0.00000000E+00
  0.00000000E+00  0.00000000E+00  0.00000000E+00
  0.00000000E+00  0.00000000E+00  0.00000000E+00
  0.00000000E+00  0.00000000E+00  0.00000000E+00
  0.00000000E+00  0.00000000E+00  0.00000000E+00
