title                                   
    1.000000000000000     
    10.3586882587614753   -0.0263207380816690    0.0415986215126664
    -0.0269180516087126   10.2619346796828701    0.0166758401133515
     0.0277885297883117    0.0110867034007462    6.8695657703665036
   Hf   Mo   Nb   Zr
    14     4    11     7
Direct
  0.8270117576441964  0.8429038210159174  0.7734799696951742
  0.1810653049904945  0.4980065440052812  0.2537432585592881
 -0.0228563314995000  0.3419904447706586  0.4891235303393386
  0.6526624243559140  0.3257526561734631 -0.0141503149749218
  0.6492575833649491  0.0110768163636169  0.5091316131828275
 -0.0103351423841066  0.6669267403719578  0.5062028469517618
  0.1701037773009507  0.1836450763612121  0.7319743534599160
  0.6593346035514972  0.3279372555935093  0.5051889015677296
  0.0296972942326624 -0.0050868764543250  0.0198060002775232
  0.3383934004021938  0.0076933312499762  0.0004576431617055
  0.8418716699673440  0.1492445259291815  0.7677325518664510
  0.4916638900932219  0.5026516807245354  0.2469305629437187
 -0.0065768638210997  0.3345486534167276  0.0202870085928334
  0.8238351588754229  0.1408264734693532  0.2284189596607137
  0.4944369503506700  0.1764332618769384  0.2494890967140594
  0.3455150329234586  0.3276872094129819  0.4975975273344050
  0.6622687409742248  0.6706897320805953 -0.0148444518992585
  0.4889627916822015  0.1740448388335127  0.7476857945962726
  0.1802507953218563  0.1894128765423632  0.2743547527348130
  0.3437430977154134  0.3224989465165998 -0.0006409135727016
  0.4882728247479537  0.5009534130501898  0.7462390716543197
  0.6393403363268413  0.0105869791199772 -0.0109559952902591
  0.0009322799090396  0.6697863604977904 -0.0079333240412514
  0.1766760026313450  0.8168246508667290  0.7593714392202933
  0.5064294935469755  0.8272198572759123  0.7627462419065894
  0.3400303877115026  0.6646702827865374 -0.0229633494932817
  0.8271938373855950  0.8355396045978981  0.2326047309925934
  0.3447257512622515  0.6701561259248010  0.5213074922135564
  0.8276807904910016  0.5157675450059496  0.7796693595796115
  0.1833690246464586  0.8008666573301555  0.2447441844975853
  0.8137541667033836  0.5228939107927488  0.2173884704739568
  0.0125900068336397 -0.0111745630856398  0.4888717699037675
  0.6731645386299879  0.6681898318173436  0.5103138324900417
  0.3410596785599727  0.0018458195022600  0.5003021236556462
  0.5120504502520368  0.8226970542983345  0.2388103400138957
  0.1724244943200494  0.4942924619649577  0.7475149210312858
 
  0.00000000E+00  0.00000000E+00  0.00000000E+00
  0.00000000E+00  0.00000000E+00  0.00000000E+00
  0.00000000E+00  0.00000000E+00  0.00000000E+00
  0.00000000E+00  0.00000000E+00  0.00000000E+00
  0.00000000E+00  0.00000000E+00  0.00000000E+00
  0.00000000E+00  0.00000000E+00  0.00000000E+00
  0.00000000E+00  0.00000000E+00  0.00000000E+00
  0.00000000E+00  0.00000000E+00  0.00000000E+00
  0.00000000E+00  0.00000000E+00  0.00000000E+00
  0.00000000E+00  0.00000000E+00  0.00000000E+00
  0.00000000E+00  0.00000000E+00  0.00000000E+00
  0.00000000E+00  0.00000000E+00  0.00000000E+00
  0.00000000E+00  0.00000000E+00  0.00000000E+00
  0.00000000E+00  0.00000000E+00  0.00000000E+00
  0.00000000E+00  0.00000000E+00  0.00000000E+00
  0.00000000E+00  0.00000000E+00  0.00000000E+00
  0.00000000E+00  0.00000000E+00  0.00000000E+00
  0.00000000E+00  0.00000000E+00  0.00000000E+00
  0.00000000E+00  0.00000000E+00  0.00000000E+00
  0.00000000E+00  0.00000000E+00  0.00000000E+00
  0.00000000E+00  0.00000000E+00  0.00000000E+00
  0.00000000E+00  0.00000000E+00  0.00000000E+00
  0.00000000E+00  0.00000000E+00  0.00000000E+00
  0.00000000E+00  0.00000000E+00  0.00000000E+00
  0.00000000E+00  0.00000000E+00  0.00000000E+00
  0.00000000E+00  0.00000000E+00  0.00000000E+00
  0.00000000E+00  0.00000000E+00  0.00000000E+00
  0.00000000E+00  0.00000000E+00  0.00000000E+00
  0.00000000E+00  0.00000000E+00  0.00000000E+00
  0.00000000E+00  0.00000000E+00  0.00000000E+00
  0.00000000E+00  0.00000000E+00  0.00000000E+00
  0.00000000E+00  0.00000000E+00  0.00000000E+00
  0.00000000E+00  0.00000000E+00  0.00000000E+00
  0.00000000E+00  0.00000000E+00  0.00000000E+00
  0.00000000E+00  0.00000000E+00  0.00000000E+00
  0.00000000E+00  0.00000000E+00  0.00000000E+00
