title                                   
    1.000000000000000     
     9.5395522161393469   -0.0127510692506116   -0.0033235174962714
    -0.0128721793756547    9.6962484075323498   -0.0033336805501300
    -0.0022138962753348   -0.0021167437218758    6.3544212767195880
   Ti   V    W    Zr
    10     4    19     3
Direct
  0.5013469357261496  0.8327525531386107  0.7506320119323028
  0.1708389484728972  0.8122106086416730  0.7621599458002911
  0.8284337911367653  0.8309629280291214  0.2681816102080772
  0.8297444052117473  0.8334617808650500  0.7320295637443702
  0.4983385727922771  0.4966669939986983  0.7431200381709738
  0.4973901300244177  0.4967383790593612  0.2550461799974353
 -0.0060595873153053  0.0167763588471697  0.4921897609146543
  0.5007069753657947  0.8312011903248013  0.2491661378996055
  0.1687752608371870  0.8178524244846258  0.2396207260609834
  0.1657799636455978  0.1858018704936450  0.7545976809674595
  0.8403364566795145  0.4942531888066817  0.2584058319224308
  0.1683357785044737  0.4995486697689793  0.7499583359425304
  0.8409152466797442  0.4965984837492415  0.7407398857941458
  0.8261098183934374  0.1747037631750615  0.2511975130294580
  0.6707503672369582  0.3334526026887582  0.4979258587053412
  0.3331822992950105  0.6591212646658690 -0.0008491156598353
 -0.0003519008083666  0.6565395753092842  0.5026486531862289
  0.3328663224470604  0.3357486493940487 -0.0006209836394112
  0.5002060997527212  0.1713178648295774  0.7527987541402018
  0.6656541639191406  0.0087029552333013  0.4979387811403044
  0.1659705585907189  0.1803795489133873  0.2453833696887801
  0.6714772823956129  0.3330083402276009  0.0017681329318487
  0.5022150047608031  0.1700752325296823  0.2479657391010079
 -0.0027637526487135  0.6556510956035753 -0.0019356619442575
  0.6717146593482013  0.6590300342000054  0.5023709645051916
 -0.0030922335721099  0.3381554142443649  0.0024270316698298
  0.3324798271034369  0.6614354095745042  0.5012150866007119
  0.3321498949250771  0.3331204887555633  0.4994113457680175
 -0.0038199490676766  0.3369206320368237  0.4990409124675971
  0.8293248804173144  0.1743338936489382  0.7484539837124329
  0.6667224395331428  0.0071420626158093  0.0022047027001325
  0.3345012801842192  0.0052006891712264  0.0011693001403141
  0.1675831807811506  0.5017480989726542  0.2508537939780269
  0.3219936968938418 -0.0008294568730015  0.5027804832298451
  0.6795453141828691  0.6582589657515383 -0.0027348507981566
  0.0006978681748904  0.0019574451237681  0.0027384959911308
 
  0.00000000E+00  0.00000000E+00  0.00000000E+00
  0.00000000E+00  0.00000000E+00  0.00000000E+00
  0.00000000E+00  0.00000000E+00  0.00000000E+00
  0.00000000E+00  0.00000000E+00  0.00000000E+00
  0.00000000E+00  0.00000000E+00  0.00000000E+00
  0.00000000E+00  0.00000000E+00  0.00000000E+00
  0.00000000E+00  0.00000000E+00  0.00000000E+00
  0.00000000E+00  0.00000000E+00  0.00000000E+00
  0.00000000E+00  0.00000000E+00  0.00000000E+00
  0.00000000E+00  0.00000000E+00  0.00000000E+00
  0.00000000E+00  0.00000000E+00  0.00000000E+00
  0.00000000E+00  0.00000000E+00  0.00000000E+00
  0.00000000E+00  0.00000000E+00  0.00000000E+00
  0.00000000E+00  0.00000000E+00  0.00000000E+00
  0.00000000E+00  0.00000000E+00  0.00000000E+00
  0.00000000E+00  0.00000000E+00  0.00000000E+00
  0.00000000E+00  0.00000000E+00  0.00000000E+00
  0.00000000E+00  0.00000000E+00  0.00000000E+00
  0.00000000E+00  0.00000000E+00  0.00000000E+00
  0.00000000E+00  0.00000000E+00  0.00000000E+00
  0.00000000E+00  0.00000000E+00  0.00000000E+00
  0.00000000E+00  0.00000000E+00  0.00000000E+00
  0.00000000E+00  0.00000000E+00  0.00000000E+00
  0.00000000E+00  0.00000000E+00  0.00000000E+00
  0.00000000E+00  0.00000000E+00  0.00000000E+00
  0.00000000E+00  0.00000000E+00  0.00000000E+00
  0.00000000E+00  0.00000000E+00  0.00000000E+00
  0.00000000E+00  0.00000000E+00  0.00000000E+00
  0.00000000E+00  0.00000000E+00  0.00000000E+00
  0.00000000E+00  0.00000000E+00  0.00000000E+00
  0.00000000E+00  0.00000000E+00  0.00000000E+00
  0.00000000E+00  0.00000000E+00  0.00000000E+00
  0.00000000E+00  0.00000000E+00  0.00000000E+00
  0.00000000E+00  0.00000000E+00  0.00000000E+00
  0.00000000E+00  0.00000000E+00  0.00000000E+00
  0.00000000E+00  0.00000000E+00  0.00000000E+00
