title                                   
    1.000000000000000     
     9.8777157275732979   -0.1309683092021317   -0.0612423474162060
    -0.1301419679084515    9.8482175377614656    0.0303990628943944
    -0.0413732920869724    0.0210874866375331    6.6880314649149728
   Mo   Ta   Ti   V    Zr
     6     1     2    12    15
Direct
  0.5014030064021713  0.1699246777772234  0.2621140272305387
  0.3162412359920435  0.6592980516447982  0.5183813291464932
  0.8212080960091073  0.5016991134445522  0.7578304881367681
  0.3404067787895338  0.0104070370003909  0.4861200758098783
  0.6705103237491138  0.6603986908922144  0.5039518108315919
  0.6700772366757801  0.0101736925810253  0.4941258976397176
  0.8245043350574720  0.8299700252596359  0.2633179489877386
  0.0005834806773302  0.6609720996121728 -0.0058748284195361
  0.0086619619802256 -0.0075388525495542  0.5241525261331476
 -0.0059617245603896  0.3489019279907227 -0.0388179917333031
  0.8283441432209058  0.1702887055328527  0.7177855375191056
  0.6574211287104524  0.3208307638603799  0.5147666376440505
  0.3299524925009827  0.3176586996531492  0.0208578841640393
  0.5004584149926349  0.1659097889371223  0.7055580172758396
  0.2959460703794338  0.6653310322036842 -0.0194575967420451
  0.6876740661124962  0.6535300109340478 -0.0034775072541209
 -0.0286736695700409  0.3512742614477279  0.5644834608344070
  0.1893380709291815  0.1717020368080151  0.2641042523625647
  0.1700535799473853  0.5026269177164195  0.7708227224051657
  0.3560859331838627  0.3175727078158375  0.4672031089439069
  0.1862066201333079  0.8207962153332401  0.7414306721395183
  0.8623034310582205  0.1801523207307906  0.2745119360445830
  0.6633216701509081  0.3232438506464742 -0.0168243613352520
  0.4963570298010767  0.8258477906111007  0.7385411289759942
  0.8167372948943507  0.8345938431493680  0.7487735568954383
  0.5035636425032480  0.8242368363835252  0.2496655719606373
  0.3392893824148668  0.0154470112287214 -0.0134622016793555
  0.1799220773973548  0.8294459524745607  0.2633553074713320
  0.4817563247306052  0.4961267062108217  0.7478972265448037
  0.0015479639112249  0.6666440110704492  0.5306323854417007
  0.4936839164710747  0.5059895113265205  0.2457996283411794
  0.8307098987800414  0.4968172648689368  0.2592082552842966
  0.6670413853549283  0.0194998878452094 -0.0017927031452275
  0.1749651593316929  0.1962065749124211  0.7148555017353877
  0.0110298675679235  0.0096205768426182 -0.0101081647673915
  0.1573293743194932  0.4744002578028237  0.2595684591764058
 
  0.00000000E+00  0.00000000E+00  0.00000000E+00
  0.00000000E+00  0.00000000E+00  0.00000000E+00
  0.00000000E+00  0.00000000E+00  0.00000000E+00
  0.00000000E+00  0.00000000E+00  0.00000000E+00
  0.00000000E+00  0.00000000E+00  0.00000000E+00
  0.00000000E+00  0.00000000E+00  0.00000000E+00
  0.00000000E+00  0.00000000E+00  0.00000000E+00
  0.00000000E+00  0.00000000E+00  0.00000000E+00
  0.00000000E+00  0.00000000E+00  0.00000000E+00
  0.00000000E+00  0.00000000E+00  0.00000000E+00
  0.00000000E+00  0.00000000E+00  0.00000000E+00
  0.00000000E+00  0.00000000E+00  0.00000000E+00
  0.00000000E+00  0.00000000E+00  0.00000000E+00
  0.00000000E+00  0.00000000E+00  0.00000000E+00
  0.00000000E+00  0.00000000E+00  0.00000000E+00
  0.00000000E+00  0.00000000E+00  0.00000000E+00
  0.00000000E+00  0.00000000E+00  0.00000000E+00
  0.00000000E+00  0.00000000E+00  0.00000000E+00
  0.00000000E+00  0.00000000E+00  0.00000000E+00
  0.00000000E+00  0.00000000E+00  0.00000000E+00
  0.00000000E+00  0.00000000E+00  0.00000000E+00
  0.00000000E+00  0.00000000E+00  0.00000000E+00
  0.00000000E+00  0.00000000E+00  0.00000000E+00
  0.00000000E+00  0.00000000E+00  0.00000000E+00
  0.00000000E+00  0.00000000E+00  0.00000000E+00
  0.00000000E+00  0.00000000E+00  0.00000000E+00
  0.00000000E+00  0.00000000E+00  0.00000000E+00
  0.00000000E+00  0.00000000E+00  0.00000000E+00
  0.00000000E+00  0.00000000E+00  0.00000000E+00
  0.00000000E+00  0.00000000E+00  0.00000000E+00
  0.00000000E+00  0.00000000E+00  0.00000000E+00
  0.00000000E+00  0.00000000E+00  0.00000000E+00
  0.00000000E+00  0.00000000E+00  0.00000000E+00
  0.00000000E+00  0.00000000E+00  0.00000000E+00
  0.00000000E+00  0.00000000E+00  0.00000000E+00
  0.00000000E+00  0.00000000E+00  0.00000000E+00
