title                                   
    1.000000000000000     
    10.0811977514767452   -0.0074710068605922   -0.0107343085001360
    -0.0072321095261395   10.1601620671992254   -0.1410109089206061
    -0.0073493245213098   -0.0963299098470135    6.7409218224758867
   Ta   Ti   Zr
     8    18    10
Direct
  0.3312972544266058  0.3422116607820000 -0.0075413462237885
  0.6271589283836582  0.0196310036936494  0.4833293022061047
  0.3295653353565620  0.6750958634317989  0.4885084179768444
  0.1712098190429140  0.8341678688301620  0.2695839518812809
  0.1595658484867875  0.1712902878376499  0.7795716461382244
  0.6678639103684373  0.3335267957405925  0.5229611927012970
  0.8375775457992051  0.5040333596181085  0.7378849664179530
  0.0022718316554459  0.3275383231784990  0.5151662189047169
  0.4988094011054572  0.4926975519842142  0.2553312824210231
 -0.0054724831556460  0.6601084517688282  0.0039644161187440
  0.6671805253700945  0.3589449389886177 -0.0331158165387653
  0.0289245918453768  0.0263281273633297  0.4803672854841358
  0.0083360481532046  0.3649422484361604 -0.0140971959038428
  0.0181223184323135 -0.0072448163590622  0.0253476449382113
  0.6809879641602077  0.6489824684505902  0.4662212703303267
  0.8250956896020583  0.4614550784288948  0.2494603747772044
  0.1795408024598464  0.4774000787958563  0.2762964835098695
  0.5023681787297197  0.8137644146618256  0.2785530615721490
  0.3369597952198133 -0.0055293914527248  0.5090419943317390
  0.6374539302594163 -0.0143200892841972  0.0204526405121814
  0.6828001322602039  0.6539812030273865  0.0283992308461336
  0.1694567975460357  0.4967945200132401  0.7213944694392620
  0.5063065947237799  0.8298804881403620  0.7316238254793654
  0.5215801049099965  0.2002458229299119  0.2170877098755834
  0.5122311361142292  0.1679289883124364  0.7790316185622461
  0.1540730265437180  0.1899976564824779  0.2195351884800344
  0.8312689788172510  0.1694929994530050  0.2443624350038731
  0.8323125896104044  0.1577741874173906  0.7590075214819834
  0.8183321553084295  0.8292854538930597  0.7507686454028133
  0.3412004530064694  0.0066477583720310  0.0295261476982142
  0.8270441813809424  0.8536495611773407  0.2564946541677932
  0.1509458766675514  0.8369504430942166  0.7362534055732166
  0.3155015956738177  0.6546215829021084  0.0168595143897207
 -0.0080744254134902  0.6504558167378972  0.4559889258743654
  0.5015743272563570  0.5210958055123194  0.7412480825105996
  0.3386292398928264  0.2961734876400247  0.5051308336591901
 
  0.00000000E+00  0.00000000E+00  0.00000000E+00
  0.00000000E+00  0.00000000E+00  0.00000000E+00
  0.00000000E+00  0.00000000E+00  0.00000000E+00
  0.00000000E+00  0.00000000E+00  0.00000000E+00
  0.00000000E+00  0.00000000E+00  0.00000000E+00
  0.00000000E+00  0.00000000E+00  0.00000000E+00
  0.00000000E+00  0.00000000E+00  0.00000000E+00
  0.00000000E+00  0.00000000E+00  0.00000000E+00
  0.00000000E+00  0.00000000E+00  0.00000000E+00
  0.00000000E+00  0.00000000E+00  0.00000000E+00
  0.00000000E+00  0.00000000E+00  0.00000000E+00
  0.00000000E+00  0.00000000E+00  0.00000000E+00
  0.00000000E+00  0.00000000E+00  0.00000000E+00
  0.00000000E+00  0.00000000E+00  0.00000000E+00
  0.00000000E+00  0.00000000E+00  0.00000000E+00
  0.00000000E+00  0.00000000E+00  0.00000000E+00
  0.00000000E+00  0.00000000E+00  0.00000000E+00
  0.00000000E+00  0.00000000E+00  0.00000000E+00
  0.00000000E+00  0.00000000E+00  0.00000000E+00
  0.00000000E+00  0.00000000E+00  0.00000000E+00
  0.00000000E+00  0.00000000E+00  0.00000000E+00
  0.00000000E+00  0.00000000E+00  0.00000000E+00
  0.00000000E+00  0.00000000E+00  0.00000000E+00
  0.00000000E+00  0.00000000E+00  0.00000000E+00
  0.00000000E+00  0.00000000E+00  0.00000000E+00
  0.00000000E+00  0.00000000E+00  0.00000000E+00
  0.00000000E+00  0.00000000E+00  0.00000000E+00
  0.00000000E+00  0.00000000E+00  0.00000000E+00
  0.00000000E+00  0.00000000E+00  0.00000000E+00
  0.00000000E+00  0.00000000E+00  0.00000000E+00
  0.00000000E+00  0.00000000E+00  0.00000000E+00
  0.00000000E+00  0.00000000E+00  0.00000000E+00
  0.00000000E+00  0.00000000E+00  0.00000000E+00
  0.00000000E+00  0.00000000E+00  0.00000000E+00
  0.00000000E+00  0.00000000E+00  0.00000000E+00
  0.00000000E+00  0.00000000E+00  0.00000000E+00
