title                                   
    1.000000000000000     
     9.8718325979459749    0.0083502485061587   -0.0744800713748646
     0.0080353328603677    9.8640147437000856    0.0672428775669083
    -0.0498420341134785    0.0454132960395586    6.6567065834375301
   Ta   Ti   V    Zr
     9     9     9     9
Direct
  0.0086199842490019  0.3274883180808322  0.4919891025689833
  0.1635470789879531  0.4960093835725957  0.2444040821550459
  0.1594465739412590  0.1589875037669405  0.2324239728635473
  0.8298368661682982  0.4954438138720089  0.2337106367599673
  0.3419419997336798  0.0101171788915882 -0.0025817764834558
  0.6435644088742406 -0.0062070781924740  0.0135986092858829
  0.4984570510667700  0.8259414799440413  0.7597024119038991
  0.3424857506720720  0.6708517117945767  0.0246701688239165
  0.0007958126093974  0.6571487798792077 -0.0187972413965523
  0.3326374128762419  0.3235455807859519  0.0197550854360852
  0.1797036129935833  0.8452827081237829  0.7537262553842241
  0.8270736757425706  0.8374637871959409  0.7880829089195962
  0.0064965183975922  0.0055737507110836  0.5291522368226151
  0.6725166284067619  0.6809189750776867  0.4895001487736134
  0.3394465027552027  0.6956427820525278  0.4835469587342200
  0.5035316444675738  0.5084247125881078  0.7800295526958718
  0.3132011577861087  0.3026867457463086  0.4879168369773353
  0.8341988118143560  0.8280776320429799  0.2093343513829941
  0.1652523198013433  0.1631012211460169  0.7565782454667722
  0.4967902095734604  0.8345553096827107  0.2418162972049687
  0.6444362872595425  0.3309327047131173  0.0528053674491483
  0.4956351284039344  0.1627292063071991  0.2553191300249281
  0.6810440290649530  0.3206436686811286  0.4546554382982175
  0.6527390609112725  0.6736506537281253  0.0266118672286014
  0.0229254941503969  0.3362208291523661 -0.0047228147482438
  0.0181212940521229  0.0102226245922656 -0.0507474575153864
  0.3368814447792772  0.0040866970074090  0.4886526471940612
  0.8083653761673603  0.4833506775241525  0.7593533447411638
  0.4984080110261743  0.4928454863730313  0.2990783437885073
  0.1555048873234437  0.8465658224800056  0.2364375127485721
  0.8333527547902728  0.1728569509575454  0.7584257732358621
  0.1896405336444245  0.4967708603529642  0.7440887143179518
  0.8444801638193891  0.1609972559550401  0.2255109520990007
  0.5096692118349238  0.1920303019745892  0.7396719748812199
  0.6654665765354546 -0.0166667151218840  0.4862864933829324
 -0.0162142746804067  0.6717086785605280  0.5100138685939324
 
  0.00000000E+00  0.00000000E+00  0.00000000E+00
  0.00000000E+00  0.00000000E+00  0.00000000E+00
  0.00000000E+00  0.00000000E+00  0.00000000E+00
  0.00000000E+00  0.00000000E+00  0.00000000E+00
  0.00000000E+00  0.00000000E+00  0.00000000E+00
  0.00000000E+00  0.00000000E+00  0.00000000E+00
  0.00000000E+00  0.00000000E+00  0.00000000E+00
  0.00000000E+00  0.00000000E+00  0.00000000E+00
  0.00000000E+00  0.00000000E+00  0.00000000E+00
  0.00000000E+00  0.00000000E+00  0.00000000E+00
  0.00000000E+00  0.00000000E+00  0.00000000E+00
  0.00000000E+00  0.00000000E+00  0.00000000E+00
  0.00000000E+00  0.00000000E+00  0.00000000E+00
  0.00000000E+00  0.00000000E+00  0.00000000E+00
  0.00000000E+00  0.00000000E+00  0.00000000E+00
  0.00000000E+00  0.00000000E+00  0.00000000E+00
  0.00000000E+00  0.00000000E+00  0.00000000E+00
  0.00000000E+00  0.00000000E+00  0.00000000E+00
  0.00000000E+00  0.00000000E+00  0.00000000E+00
  0.00000000E+00  0.00000000E+00  0.00000000E+00
  0.00000000E+00  0.00000000E+00  0.00000000E+00
  0.00000000E+00  0.00000000E+00  0.00000000E+00
  0.00000000E+00  0.00000000E+00  0.00000000E+00
  0.00000000E+00  0.00000000E+00  0.00000000E+00
  0.00000000E+00  0.00000000E+00  0.00000000E+00
  0.00000000E+00  0.00000000E+00  0.00000000E+00
  0.00000000E+00  0.00000000E+00  0.00000000E+00
  0.00000000E+00  0.00000000E+00  0.00000000E+00
  0.00000000E+00  0.00000000E+00  0.00000000E+00
  0.00000000E+00  0.00000000E+00  0.00000000E+00
  0.00000000E+00  0.00000000E+00  0.00000000E+00
  0.00000000E+00  0.00000000E+00  0.00000000E+00
  0.00000000E+00  0.00000000E+00  0.00000000E+00
  0.00000000E+00  0.00000000E+00  0.00000000E+00
  0.00000000E+00  0.00000000E+00  0.00000000E+00
  0.00000000E+00  0.00000000E+00  0.00000000E+00
