title                                   
    1.000000000000000     
     9.6834011445061936   -0.0213724398191946    0.0007715145841581
    -0.0213339133511615    9.7079763930294618   -0.0035484926053981
     0.0005123933823478   -0.0023652379031990    6.4434126758214720
   Mo   Nb   W    Zr
    19    10     4     3
Direct
  0.3326822406851522  0.3321191627461016  0.0006515668202603
  0.1696195050448452  0.1697158331375639  0.7487308630087607
  0.5007390541375997  0.1676242402854421  0.2495058017172227
  0.6660950074057339  0.0007920164661824  0.0025536764581549
  0.6669208783239405  0.3344847140810691  0.0018018006275275
  0.1621334964813554  0.4915636810151818  0.2499733083345113
  0.5060047060054212  0.4912890381248264  0.2519286502518971
  0.3341280978554358  0.0049126817520504 -0.0024624161364592
  0.1690786846966796  0.1698285700221572  0.2483556667978895
  0.5062208400094163  0.8397882284124001  0.2500547123821145
  0.8329450845636834  0.4991706563912205  0.7497820022693772
 -0.0033818963938685  0.6626302709359900 -0.0029640265299433
  0.6684769321165307  0.6641560388299660  0.4995192132199557
  0.3331381859663286  0.3323880070705626  0.4991764876719931
  0.1636718611026666  0.4929177810518962  0.7493210477152142
  0.8306073154039584  0.8328590760458757  0.2508031153417079
  0.0007174937917172  0.3356752261332069  0.5011536161579703
  0.6670925503166193  0.3341290579674353  0.4996120039336291
  0.8303954138166816  0.1686734722979741  0.7483350596922722
  0.3346849153335476  0.0053829874226572  0.4986953644664857
  0.5054655672572250  0.8389463697921019  0.7512818951861330
  0.6673315509057027  0.6639041468374255  0.0048073610495032
  0.5006960449251814  0.1684125658131497  0.7522775732152230
 -0.0032590638342644  0.0060550059512854  0.5026354552471314
  0.8312718701916535  0.8329737974016160  0.7508598719141998
  0.8288004026678749  0.1702344699969533  0.2503213540450990
 -0.0021890021205870  0.0062182490328290 -0.0043067366231937
 -0.0023971607426681  0.6621245068371118  0.5030086102214874
  0.0016138851986491  0.3348040113278204 -0.0029665872780868
  0.1623340730124849  0.8385236746524567  0.7523939566275754
  0.6662713145017796  0.0014807393148731  0.4973396103862568
  0.5065105552124298  0.4897346265110367  0.7493117013015395
  0.8317847428963683  0.4979145788547510  0.2529366479171459
  0.3358724607709205  0.6606938745448312  0.5005835868290157
  0.1625966330539631  0.8372230386100366  0.2449452142673583
  0.3353257594398430  0.6606556043319629  0.0000429714930711
 
  0.00000000E+00  0.00000000E+00  0.00000000E+00
  0.00000000E+00  0.00000000E+00  0.00000000E+00
  0.00000000E+00  0.00000000E+00  0.00000000E+00
  0.00000000E+00  0.00000000E+00  0.00000000E+00
  0.00000000E+00  0.00000000E+00  0.00000000E+00
  0.00000000E+00  0.00000000E+00  0.00000000E+00
  0.00000000E+00  0.00000000E+00  0.00000000E+00
  0.00000000E+00  0.00000000E+00  0.00000000E+00
  0.00000000E+00  0.00000000E+00  0.00000000E+00
  0.00000000E+00  0.00000000E+00  0.00000000E+00
  0.00000000E+00  0.00000000E+00  0.00000000E+00
  0.00000000E+00  0.00000000E+00  0.00000000E+00
  0.00000000E+00  0.00000000E+00  0.00000000E+00
  0.00000000E+00  0.00000000E+00  0.00000000E+00
  0.00000000E+00  0.00000000E+00  0.00000000E+00
  0.00000000E+00  0.00000000E+00  0.00000000E+00
  0.00000000E+00  0.00000000E+00  0.00000000E+00
  0.00000000E+00  0.00000000E+00  0.00000000E+00
  0.00000000E+00  0.00000000E+00  0.00000000E+00
  0.00000000E+00  0.00000000E+00  0.00000000E+00
  0.00000000E+00  0.00000000E+00  0.00000000E+00
  0.00000000E+00  0.00000000E+00  0.00000000E+00
  0.00000000E+00  0.00000000E+00  0.00000000E+00
  0.00000000E+00  0.00000000E+00  0.00000000E+00
  0.00000000E+00  0.00000000E+00  0.00000000E+00
  0.00000000E+00  0.00000000E+00  0.00000000E+00
  0.00000000E+00  0.00000000E+00  0.00000000E+00
  0.00000000E+00  0.00000000E+00  0.00000000E+00
  0.00000000E+00  0.00000000E+00  0.00000000E+00
  0.00000000E+00  0.00000000E+00  0.00000000E+00
  0.00000000E+00  0.00000000E+00  0.00000000E+00
  0.00000000E+00  0.00000000E+00  0.00000000E+00
  0.00000000E+00  0.00000000E+00  0.00000000E+00
  0.00000000E+00  0.00000000E+00  0.00000000E+00
  0.00000000E+00  0.00000000E+00  0.00000000E+00
  0.00000000E+00  0.00000000E+00  0.00000000E+00
