title                                   
    1.000000000000000     
     9.3890986142062172    0.0007611308847159    0.0061294469208898
     0.0007582760031306    9.3864852935958254    0.0105584734147263
     0.0040856680045588    0.0070386909979133    6.2602223453673078
   Mo   V    W 
     8    10    18
Direct
  0.6667060736047178  0.6638675364661195  0.0041002492305789
  0.1696321529994761  0.4994129312289957  0.7492983747921750
  0.0026337777367497  0.3344368148642497  0.0024218067204388
  0.1669724606707767  0.1679295961298378  0.7528543148306854
  0.3327987219214860  0.3345366753152778  0.4923445002753597
  0.8346981437339593  0.1672887288646674  0.7513247839319978
  0.8329438622513353  0.5006710984357891  0.7489246771821978
  0.8336832328585797  0.8326031800185189  0.7503773341317498
  0.6668794892726045  0.6653880967270380  0.5009248228617140
  0.8333492792640470  0.5005608487119052  0.2502346221071012
  0.4988631586199394  0.4996648159614514  0.2508663671336927
  0.1664782102377171  0.8329852846267156  0.2506847613100466
  0.3333211051442095  0.3337038203778200  0.0014629089305588
  0.3330895364058840  0.6658591385345040  0.4987043000947483
  0.1682770337247093  0.4988639976120302  0.2497246275693812
  0.4975802137932400  0.1690106822401320  0.2487105835495270
  0.1673044213745595  0.1679038005706131  0.2475322596599475
  0.0009143216127114 -0.0009850845979697  0.0000556615817144
  0.8343276966582137  0.8318858495987635  0.2500941914465316
  0.6656533389332279  0.0004369392062291  0.0009108617761520
  0.0015993629316900  0.3347635240313656  0.4961139650277002
  0.8350918164526835  0.1673357254553397  0.2476544041677867
  0.0024785169694958  0.0006019760827070  0.4975835131341204
  0.4986800001572150  0.8305350547689201  0.7492123990662798
  0.3313958108072958  0.0004586721408988  0.4957321721665585
  0.0020039300455829  0.6648784098188472  0.4969758732116592
  0.0017349446918938  0.6658758667941028  0.0041493745557376
  0.6666008001320674  0.3357904799031804  0.4952469828437615
  0.6640205007338176  0.3348451771955988  0.0031194140986277
  0.3318251017410360  0.6636931188089555  0.0056980981023460
  0.6656056989061038  0.0006594124397365  0.4997729211500251
  0.4987887910848303  0.8303008084338118  0.2539367400118234
  0.4976397888229632  0.1690046298599380  0.7500779780989356
  0.1671047822789785  0.8329231120232536  0.7509415309621902
  0.4983420981217630  0.5008016405321856  0.7476566833081897
  0.3309818253044401  0.0015076408184702  0.0045759409779596
 
  0.00000000E+00  0.00000000E+00  0.00000000E+00
  0.00000000E+00  0.00000000E+00  0.00000000E+00
  0.00000000E+00  0.00000000E+00  0.00000000E+00
  0.00000000E+00  0.00000000E+00  0.00000000E+00
  0.00000000E+00  0.00000000E+00  0.00000000E+00
  0.00000000E+00  0.00000000E+00  0.00000000E+00
  0.00000000E+00  0.00000000E+00  0.00000000E+00
  0.00000000E+00  0.00000000E+00  0.00000000E+00
  0.00000000E+00  0.00000000E+00  0.00000000E+00
  0.00000000E+00  0.00000000E+00  0.00000000E+00
  0.00000000E+00  0.00000000E+00  0.00000000E+00
  0.00000000E+00  0.00000000E+00  0.00000000E+00
  0.00000000E+00  0.00000000E+00  0.00000000E+00
  0.00000000E+00  0.00000000E+00  0.00000000E+00
  0.00000000E+00  0.00000000E+00  0.00000000E+00
  0.00000000E+00  0.00000000E+00  0.00000000E+00
  0.00000000E+00  0.00000000E+00  0.00000000E+00
  0.00000000E+00  0.00000000E+00  0.00000000E+00
  0.00000000E+00  0.00000000E+00  0.00000000E+00
  0.00000000E+00  0.00000000E+00  0.00000000E+00
  0.00000000E+00  0.00000000E+00  0.00000000E+00
  0.00000000E+00  0.00000000E+00  0.00000000E+00
  0.00000000E+00  0.00000000E+00  0.00000000E+00
  0.00000000E+00  0.00000000E+00  0.00000000E+00
  0.00000000E+00  0.00000000E+00  0.00000000E+00
  0.00000000E+00  0.00000000E+00  0.00000000E+00
  0.00000000E+00  0.00000000E+00  0.00000000E+00
  0.00000000E+00  0.00000000E+00  0.00000000E+00
  0.00000000E+00  0.00000000E+00  0.00000000E+00
  0.00000000E+00  0.00000000E+00  0.00000000E+00
  0.00000000E+00  0.00000000E+00  0.00000000E+00
  0.00000000E+00  0.00000000E+00  0.00000000E+00
  0.00000000E+00  0.00000000E+00  0.00000000E+00
  0.00000000E+00  0.00000000E+00  0.00000000E+00
  0.00000000E+00  0.00000000E+00  0.00000000E+00
  0.00000000E+00  0.00000000E+00  0.00000000E+00
