title                                   
    1.000000000000000     
     9.9464732612803139    0.0092283609048694   -0.0163499848903063
     0.0091980476748446    9.9010712762703132    0.0262835912224608
    -0.0109577998463503    0.0176234644514861    6.7107518430733641
   Nb   Ti   W    Zr
     9     9     9     9
Direct
  0.3502689466429176  0.3365548933000370  0.5141238081442733
  0.4981134495491118  0.1674390625356796  0.7457750215255842
  0.3359292097337522  0.6830961520656539  0.0152853239522970
  0.6731264609458808  0.3364363528022980 -0.0180734759148474
  0.1716829270546879  0.8271753406070556  0.2633074843157870
  0.8277086028372196  0.8263648634816535  0.7481958556227910
 -0.0027602434421930  0.0029104569089746  0.5144102428832302
  0.8251369833133299  0.5063150574000458  0.2411755266724860
  0.1786070693951745  0.1694248441501586  0.7465168793124584
 -0.0091962490588013  0.6524457797714512  0.5072815749556595
  0.6656519106810173  0.3412290356775571  0.5157022466989730
  0.1814244517423018  0.5052639389484613  0.7621265650841310
  0.5006012114859534  0.5100083670684962  0.2479197910676695
  0.5006684005620345  0.8265046226019506  0.2682329850575754
  0.4972949523069841  0.5072541872853087  0.7578765340328532
  0.3303970579699680 -0.0090851743162892  0.0043730777270047
  0.6716704933410372  0.0082626058367051 -0.0295173735030742
 -0.0112256423940513  0.3402444444680987 -0.0291580795578201
  0.3333137832723511  0.6620586860302184  0.4892927445011429
  0.8234986630059766  0.5074236033291174  0.7570975972833646
  0.6724977995871363  0.6517977040447444  0.5050211758625887
  0.3384932044886759  0.3283304320461016 -0.0175869905219821
 -0.0092258568557565  0.6574119639858774 -0.0067574235135633
  0.8261174522219966  0.1657659586933835  0.7433470178720101
  0.3340947669616506 -0.0000056546663156  0.4976542975634902
  0.6668590147779437  0.6595906977688533 -0.0005294870943980
  0.6702166811094971  0.0081100193958762  0.5248768830095554
  0.1765979315840214  0.1704225958493139  0.2508191210200983
  0.5025551376498801  0.1643689026837894  0.2489623469863915
  0.8223655192333982  0.8307545021195936  0.2535319269277334
  0.1715225712341973  0.4985632953350866  0.2389865385985903
 -0.0018638630827324  0.0006372721267016 -0.0132546485876103
  0.1674414865335896  0.8223654153085290  0.7402786948304896
  0.8266921395182909  0.1674581310639249  0.2530241781362858
 -0.0077535006676293  0.3386045423167545  0.5199485589510515
  0.5014770767611851  0.8284971019751529  0.7397334800977282
 
  0.00000000E+00  0.00000000E+00  0.00000000E+00
  0.00000000E+00  0.00000000E+00  0.00000000E+00
  0.00000000E+00  0.00000000E+00  0.00000000E+00
  0.00000000E+00  0.00000000E+00  0.00000000E+00
  0.00000000E+00  0.00000000E+00  0.00000000E+00
  0.00000000E+00  0.00000000E+00  0.00000000E+00
  0.00000000E+00  0.00000000E+00  0.00000000E+00
  0.00000000E+00  0.00000000E+00  0.00000000E+00
  0.00000000E+00  0.00000000E+00  0.00000000E+00
  0.00000000E+00  0.00000000E+00  0.00000000E+00
  0.00000000E+00  0.00000000E+00  0.00000000E+00
  0.00000000E+00  0.00000000E+00  0.00000000E+00
  0.00000000E+00  0.00000000E+00  0.00000000E+00
  0.00000000E+00  0.00000000E+00  0.00000000E+00
  0.00000000E+00  0.00000000E+00  0.00000000E+00
  0.00000000E+00  0.00000000E+00  0.00000000E+00
  0.00000000E+00  0.00000000E+00  0.00000000E+00
  0.00000000E+00  0.00000000E+00  0.00000000E+00
  0.00000000E+00  0.00000000E+00  0.00000000E+00
  0.00000000E+00  0.00000000E+00  0.00000000E+00
  0.00000000E+00  0.00000000E+00  0.00000000E+00
  0.00000000E+00  0.00000000E+00  0.00000000E+00
  0.00000000E+00  0.00000000E+00  0.00000000E+00
  0.00000000E+00  0.00000000E+00  0.00000000E+00
  0.00000000E+00  0.00000000E+00  0.00000000E+00
  0.00000000E+00  0.00000000E+00  0.00000000E+00
  0.00000000E+00  0.00000000E+00  0.00000000E+00
  0.00000000E+00  0.00000000E+00  0.00000000E+00
  0.00000000E+00  0.00000000E+00  0.00000000E+00
  0.00000000E+00  0.00000000E+00  0.00000000E+00
  0.00000000E+00  0.00000000E+00  0.00000000E+00
  0.00000000E+00  0.00000000E+00  0.00000000E+00
  0.00000000E+00  0.00000000E+00  0.00000000E+00
  0.00000000E+00  0.00000000E+00  0.00000000E+00
  0.00000000E+00  0.00000000E+00  0.00000000E+00
  0.00000000E+00  0.00000000E+00  0.00000000E+00
