title                                   
    1.000000000000000     
    10.1430095352557341    0.0214205174540201   -0.0519342357426473
     0.0213792719577970   10.0584584890665418   -0.0139594795550525
    -0.0346824625287241   -0.0092943477424105    6.7778447514857323
   Hf   Nb   Ti   V    Zr
    12    15     6     2     1
Direct
  0.1548432684978557  0.8311378814726281  0.7723152624132581
  0.0048876533636625  0.6548771107840365  0.4844910866001761
  0.3392484823352889  0.3299898686013260 -0.0080625427309132
  0.6715559219962307  0.6723478356311321 -0.0141458258658094
  0.3387826484754976  0.0042136934386931  0.5145832670259973
  0.1547226371462633  0.1647645193952914  0.2430871012553651
  0.5050181988793369  0.8210649645488630  0.2752145295612132
  0.6642275807351007 -0.0032480871369504 -0.0092571658738723
  0.8266572854498444  0.8464847589682549  0.2849986527032259
  0.3192519612041980  0.6569782597842950  0.5004680025241540
  0.3501419538663865  0.0046225621006830 -0.0136077589489556
  0.8395185389192350  0.1639017070166160  0.7403298176735381
 -0.0132485646535806 -0.0002828688891481  0.0097385297317530
  0.3377569549088563  0.6659639581165808 -0.0075213909532769
  0.5201600806328091  0.1902186075968398  0.7424755798661005
  0.5156440375245810  0.1698294093757942  0.2548568747061890
  0.6703460511612263  0.3313435015897446  0.0085576198162802
 -0.0040664207215063  0.3389068834457507  0.4901737672925413
  0.1637293216573936  0.4965474062186400  0.2138999531668805
  0.1634527586084425  0.8407783613044160  0.2305543016695199
  0.0117595385482429  0.0036572795015101  0.4955115807851431
  0.1484787377482937  0.1697880479904635  0.7476921753714145
 -0.0072801585186306  0.3370517008631697  0.0010690794178277
  0.6710489846276079  0.6615249611561682  0.5283918303076931
  0.8343093676443981  0.4887653537253320  0.7493419113965403
  0.8229951406046810  0.4888568117242122  0.2515921345871230
  0.6727391337553158  0.3307117168745504  0.4868711018196378
  0.5096223120322743  0.5066123937467049  0.2465986930252672
  0.8454523672198224  0.8424338706039359  0.7322994770298602
  0.6471546475273718  0.0024988927639277  0.5277165229693814
  0.1517872624311906  0.5039805008180478  0.7800237654435914
  0.5092417816374046  0.5009378555959653  0.7490975640801747
 -0.0163205598573976  0.6639855333246096  0.0181016825772543
  0.8474879669870149  0.1690178363463239  0.2483555387662552
  0.4966157313347175  0.8106799000381829  0.7299315375291071
  0.3322773962905701  0.3390570115634081  0.4942557432603647
 
  0.00000000E+00  0.00000000E+00  0.00000000E+00
  0.00000000E+00  0.00000000E+00  0.00000000E+00
  0.00000000E+00  0.00000000E+00  0.00000000E+00
  0.00000000E+00  0.00000000E+00  0.00000000E+00
  0.00000000E+00  0.00000000E+00  0.00000000E+00
  0.00000000E+00  0.00000000E+00  0.00000000E+00
  0.00000000E+00  0.00000000E+00  0.00000000E+00
  0.00000000E+00  0.00000000E+00  0.00000000E+00
  0.00000000E+00  0.00000000E+00  0.00000000E+00
  0.00000000E+00  0.00000000E+00  0.00000000E+00
  0.00000000E+00  0.00000000E+00  0.00000000E+00
  0.00000000E+00  0.00000000E+00  0.00000000E+00
  0.00000000E+00  0.00000000E+00  0.00000000E+00
  0.00000000E+00  0.00000000E+00  0.00000000E+00
  0.00000000E+00  0.00000000E+00  0.00000000E+00
  0.00000000E+00  0.00000000E+00  0.00000000E+00
  0.00000000E+00  0.00000000E+00  0.00000000E+00
  0.00000000E+00  0.00000000E+00  0.00000000E+00
  0.00000000E+00  0.00000000E+00  0.00000000E+00
  0.00000000E+00  0.00000000E+00  0.00000000E+00
  0.00000000E+00  0.00000000E+00  0.00000000E+00
  0.00000000E+00  0.00000000E+00  0.00000000E+00
  0.00000000E+00  0.00000000E+00  0.00000000E+00
  0.00000000E+00  0.00000000E+00  0.00000000E+00
  0.00000000E+00  0.00000000E+00  0.00000000E+00
  0.00000000E+00  0.00000000E+00  0.00000000E+00
  0.00000000E+00  0.00000000E+00  0.00000000E+00
  0.00000000E+00  0.00000000E+00  0.00000000E+00
  0.00000000E+00  0.00000000E+00  0.00000000E+00
  0.00000000E+00  0.00000000E+00  0.00000000E+00
  0.00000000E+00  0.00000000E+00  0.00000000E+00
  0.00000000E+00  0.00000000E+00  0.00000000E+00
  0.00000000E+00  0.00000000E+00  0.00000000E+00
  0.00000000E+00  0.00000000E+00  0.00000000E+00
  0.00000000E+00  0.00000000E+00  0.00000000E+00
  0.00000000E+00  0.00000000E+00  0.00000000E+00
