title                                   
    1.000000000000000     
    10.0763366692658689   -0.0262934148563423    0.0219197145039355
    -0.0262023995309110   10.0108473427607603   -0.0295880844618050
     0.0145740482776845   -0.0197435005028666    6.7445724789421631
   W    Zr
    18    18
Direct
  0.5071894236009019  0.5066859674714973  0.2503881267533421
  0.3383139216880943  0.6632955257858374  0.4962197250238688
  0.1624007997651892  0.5055702207497362  0.7266775941785510
  0.5003574116485797  0.8247759237973892  0.2647938975984098
  0.0108599814857099  0.3324812989532437  0.5032011185701660
  0.0025535557985825  0.6641637017586524  0.4960344868144083
  0.6600488677035450  0.6573039557192135  0.4889020927444941
  0.6564368425333830  0.3432701661689256  0.0129737673707149
  0.8289460969197603  0.5054824047310071  0.2557903165681757
  0.1634916038176746  0.1652743855939502  0.2564200435669940
  0.5016932690413163  0.1635949846914420  0.2548909424061861
  0.1705131675851813  0.8321959722480171  0.2682435143711590
  0.5109152409628868  0.5083456814375416  0.7522837679185151
  0.0217136534992435  0.0106505166748159  0.0091917565859459
  0.1652530276982456  0.1627186212572076  0.7448720889028430
  0.6508595131935814 -0.0023264400041875  0.4749035181775698
  0.6581613885121901  0.6589059764736799  0.0108956838905353
  0.3274078021346150  0.0044140370140664  0.4848117804533815
  0.5048816452165945  0.1581756656260581  0.7432857375840707
  0.1624685694154338  0.5064140591856149  0.2696708443074241
  0.0092407632798342  0.3360589379662093 -0.0031697524949510
  0.3352395456535579  0.3326654728344098 -0.0033216952827877
  0.4990691595636001  0.8285302379029430  0.7353185165922170
  0.8322291813564718  0.1670146247891059  0.7520521717322644
  0.8333514108107467  0.1714535751518761  0.2433940729319045
  0.6599988318766826  0.3383622623745242  0.4897981198891735
  0.3310906531607757 -0.0000156418094179  0.0138929830517328
  0.3369668019299075  0.6612473673577114  0.0030804890872798
  0.0098308328274911  0.0065691509985009  0.4951549298381812
  0.1704728357145276  0.8320032110862357  0.7415463878635996
  0.6503108616992415 -0.0052319585394361  0.0201393088613603
  0.3353229818245140  0.3330525081229791  0.5008798722959358
  0.8269657357599735  0.8289227598881338  0.7408790963058115
  0.8316002000368842  0.5013835768045465  0.7475651821639032
  0.0026523563854988  0.6663083112737729  0.0039627074877108
  0.8311920658995838  0.8302829784641942  0.2543768058899075
 
  0.00000000E+00  0.00000000E+00  0.00000000E+00
  0.00000000E+00  0.00000000E+00  0.00000000E+00
  0.00000000E+00  0.00000000E+00  0.00000000E+00
  0.00000000E+00  0.00000000E+00  0.00000000E+00
  0.00000000E+00  0.00000000E+00  0.00000000E+00
  0.00000000E+00  0.00000000E+00  0.00000000E+00
  0.00000000E+00  0.00000000E+00  0.00000000E+00
  0.00000000E+00  0.00000000E+00  0.00000000E+00
  0.00000000E+00  0.00000000E+00  0.00000000E+00
  0.00000000E+00  0.00000000E+00  0.00000000E+00
  0.00000000E+00  0.00000000E+00  0.00000000E+00
  0.00000000E+00  0.00000000E+00  0.00000000E+00
  0.00000000E+00  0.00000000E+00  0.00000000E+00
  0.00000000E+00  0.00000000E+00  0.00000000E+00
  0.00000000E+00  0.00000000E+00  0.00000000E+00
  0.00000000E+00  0.00000000E+00  0.00000000E+00
  0.00000000E+00  0.00000000E+00  0.00000000E+00
  0.00000000E+00  0.00000000E+00  0.00000000E+00
  0.00000000E+00  0.00000000E+00  0.00000000E+00
  0.00000000E+00  0.00000000E+00  0.00000000E+00
  0.00000000E+00  0.00000000E+00  0.00000000E+00
  0.00000000E+00  0.00000000E+00  0.00000000E+00
  0.00000000E+00  0.00000000E+00  0.00000000E+00
  0.00000000E+00  0.00000000E+00  0.00000000E+00
  0.00000000E+00  0.00000000E+00  0.00000000E+00
  0.00000000E+00  0.00000000E+00  0.00000000E+00
  0.00000000E+00  0.00000000E+00  0.00000000E+00
  0.00000000E+00  0.00000000E+00  0.00000000E+00
  0.00000000E+00  0.00000000E+00  0.00000000E+00
  0.00000000E+00  0.00000000E+00  0.00000000E+00
  0.00000000E+00  0.00000000E+00  0.00000000E+00
  0.00000000E+00  0.00000000E+00  0.00000000E+00
  0.00000000E+00  0.00000000E+00  0.00000000E+00
  0.00000000E+00  0.00000000E+00  0.00000000E+00
  0.00000000E+00  0.00000000E+00  0.00000000E+00
  0.00000000E+00  0.00000000E+00  0.00000000E+00
