title                                   
    1.000000000000000     
     9.8095119001264965    0.0276223613460906   -0.0217315157959000
     0.0275972133443567    9.7887327236431236    0.0142311428667605
    -0.0145955394712552    0.0095575749730485    6.6038568912822262
   Hf   Ta   V    W    Zr
     3    15     4    11     3
Direct
  0.1766608384342672  0.1507725806053163  0.2736186947422510
  0.3411561589415870 -0.0010480069003509 -0.0128261020226010
  0.6593944623038416  0.6730102284900803 -0.0018624652165136
  0.5001933019078153  0.4981920421563336  0.7479686514267641
  0.6616803679230480  0.6660184467653394  0.4941061618345965
  0.8235696073645582  0.1719538689707287  0.2644454609617367
  0.1677939260414056  0.5065837861742458  0.2507408538701001
  0.1665454246314036  0.8263069261825294  0.2586233689107742
  0.8388195309266838  0.8320150573534505  0.2609114431353835
  0.0010724964411513  0.3317967370207153  0.5123105344164474
  0.8404029965028669  0.8307186308814823  0.7341765160185290
  0.3391246291108592  0.3327592116963485  0.0006509319072207
  0.4893500183766550  0.8350300042415796  0.2715592751973262
  0.3379391450652371  0.3354707096053691  0.5010832513408188
  0.8333293604575759  0.4992811195086302  0.2535236019869052
  0.8304101872510952  0.5010187001337594  0.7446449033381781
  0.1665945986709643  0.8256010002358862  0.7434695658536151
  0.5081032327535986  0.1774757458562699  0.7383624524835066
  0.4863251838441782  0.8295438032294542  0.7202487989746066
  0.6660947102983251  0.3354895394930346  0.4949131564531482
  0.6638826770190811  0.3377205628734142  0.0042916626242556
  0.3389409010683025 -0.0044123516034029  0.5214844621040188
  0.3334631224459630  0.6635410107167390  0.5028154518218865
  0.0009338454316617  0.6622350485370281  0.5016200363135923
  0.5066265933499290  0.1737928458146918  0.2608245609960925
  0.8228747621999752  0.1720684262891516  0.7343104163477855
  0.6635706925377061  0.0046961962847643  0.4991758205719143
  0.1697368332261352  0.5054055167452378  0.7520056883948443
 -0.0001720762185512  0.6639300328036137 -0.0023893290860779
  0.3347448977879096  0.6646884457705406 -0.0005857974047595
  0.1733168583087982  0.1640816517414600  0.7334907967809594
 -0.0017858636173712 -0.0011266670053323  0.5085653197081500
  0.4978746445690057  0.4999197960595611  0.2487780560266500
  0.6623545176573117  0.0034609282352137 -0.0035313078232300
  0.0004521318635144  0.3284207611206063 -0.0060182920847800
 -0.0013747148764887  0.0035876639165136 -0.0055066009040953
 
  0.00000000E+00  0.00000000E+00  0.00000000E+00
  0.00000000E+00  0.00000000E+00  0.00000000E+00
  0.00000000E+00  0.00000000E+00  0.00000000E+00
  0.00000000E+00  0.00000000E+00  0.00000000E+00
  0.00000000E+00  0.00000000E+00  0.00000000E+00
  0.00000000E+00  0.00000000E+00  0.00000000E+00
  0.00000000E+00  0.00000000E+00  0.00000000E+00
  0.00000000E+00  0.00000000E+00  0.00000000E+00
  0.00000000E+00  0.00000000E+00  0.00000000E+00
  0.00000000E+00  0.00000000E+00  0.00000000E+00
  0.00000000E+00  0.00000000E+00  0.00000000E+00
  0.00000000E+00  0.00000000E+00  0.00000000E+00
  0.00000000E+00  0.00000000E+00  0.00000000E+00
  0.00000000E+00  0.00000000E+00  0.00000000E+00
  0.00000000E+00  0.00000000E+00  0.00000000E+00
  0.00000000E+00  0.00000000E+00  0.00000000E+00
  0.00000000E+00  0.00000000E+00  0.00000000E+00
  0.00000000E+00  0.00000000E+00  0.00000000E+00
  0.00000000E+00  0.00000000E+00  0.00000000E+00
  0.00000000E+00  0.00000000E+00  0.00000000E+00
  0.00000000E+00  0.00000000E+00  0.00000000E+00
  0.00000000E+00  0.00000000E+00  0.00000000E+00
  0.00000000E+00  0.00000000E+00  0.00000000E+00
  0.00000000E+00  0.00000000E+00  0.00000000E+00
  0.00000000E+00  0.00000000E+00  0.00000000E+00
  0.00000000E+00  0.00000000E+00  0.00000000E+00
  0.00000000E+00  0.00000000E+00  0.00000000E+00
  0.00000000E+00  0.00000000E+00  0.00000000E+00
  0.00000000E+00  0.00000000E+00  0.00000000E+00
  0.00000000E+00  0.00000000E+00  0.00000000E+00
  0.00000000E+00  0.00000000E+00  0.00000000E+00
  0.00000000E+00  0.00000000E+00  0.00000000E+00
  0.00000000E+00  0.00000000E+00  0.00000000E+00
  0.00000000E+00  0.00000000E+00  0.00000000E+00
  0.00000000E+00  0.00000000E+00  0.00000000E+00
  0.00000000E+00  0.00000000E+00  0.00000000E+00
