title                                   
    1.000000000000000     
     9.7042226754287153    0.0377968297330718    0.0334561942807179
     0.0376551651320677    9.6804355227762695   -0.0070640531298753
     0.0221669012241241   -0.0045979336444385    6.5077855704393084
   Cr   Ti   W    Zr
     4    14    11     7
Direct
  0.3445638663339037 -0.0239772539143477  0.0162665538665477
 -0.0281190177898030  0.3176246569331069  0.4892021184320240
  0.8235154322071652  0.8426531882283256  0.2118256238399997
  0.6714519989035018 -0.0061109257885810  0.0175591465722329
  0.8131204517482533  0.8556467390021277  0.7774399346664627
 -0.0118941705280912  0.3240514875035637  0.0193606831679523
 -0.0155725403057872 -0.0044080334235854  0.4879095538939870
  0.3488721980520045 -0.0166405260837704  0.4821688527053690
 -0.0116650741097994  0.0008427143172174  0.0161193117416502
  0.5147823992774665  0.5034468046272399  0.2561156127211436
  0.6667624730300961  0.3272973834237266  0.4944821185007068
  0.3605854476295222  0.3385850574012932  0.4970501158228900
  0.6615273382062442  0.6727721818421855  0.0011416160175950
  0.3419726462787574  0.6644102857432620 -0.0024276837482915
  0.6711208293508976 -0.0060632728364441  0.4787438087236683
  0.1543983107421240  0.5048779347277261  0.2721412410685641
  0.6663537272362906  0.6778350215556334  0.4860682981603954
  0.1780535857783894  0.8367535225174290  0.7628796418825237
  0.6729377646321263  0.3312423616846200  0.0057735608504957
  0.4997053145543877  0.8314638099351517  0.2382543235139376
  0.8297710387497793  0.1652278776558874  0.7516925391924953
  0.4978303624423318  0.8337212555668283  0.7523205443977482
  0.5092874489518884  0.1580575219513314  0.2361538228656908
  0.3426299463849034  0.6714497032526852  0.4965609243564579
  0.8322212288908050  0.4984193448091598  0.2425346279123684
  0.1759911575680154  0.8320190672949119  0.2304275461236683
  0.8311278368498547  0.1671019797251085  0.2515362961675002
 -0.0074890109448516  0.6791127747727791  0.0154178581097484
  0.5078473328979027  0.5043925959698565  0.7447906122103473
  0.8382123065102886  0.4967620515658171  0.7434644436584211
  0.5072100486074603  0.1487070101023627  0.7639235049084429
  0.3385505017135659  0.3437973463826935  0.0126033934823771
  0.1609950544307232  0.5013411448119696  0.7400695478088302
 -0.0141451728896284  0.6981895325343354  0.4889615266758611
  0.1690536410249877  0.1677110471609647  0.2750550629092017
  0.1584332975843260  0.1616866090474283  0.7464133168209871
 
  0.00000000E+00  0.00000000E+00  0.00000000E+00
  0.00000000E+00  0.00000000E+00  0.00000000E+00
  0.00000000E+00  0.00000000E+00  0.00000000E+00
  0.00000000E+00  0.00000000E+00  0.00000000E+00
  0.00000000E+00  0.00000000E+00  0.00000000E+00
  0.00000000E+00  0.00000000E+00  0.00000000E+00
  0.00000000E+00  0.00000000E+00  0.00000000E+00
  0.00000000E+00  0.00000000E+00  0.00000000E+00
  0.00000000E+00  0.00000000E+00  0.00000000E+00
  0.00000000E+00  0.00000000E+00  0.00000000E+00
  0.00000000E+00  0.00000000E+00  0.00000000E+00
  0.00000000E+00  0.00000000E+00  0.00000000E+00
  0.00000000E+00  0.00000000E+00  0.00000000E+00
  0.00000000E+00  0.00000000E+00  0.00000000E+00
  0.00000000E+00  0.00000000E+00  0.00000000E+00
  0.00000000E+00  0.00000000E+00  0.00000000E+00
  0.00000000E+00  0.00000000E+00  0.00000000E+00
  0.00000000E+00  0.00000000E+00  0.00000000E+00
  0.00000000E+00  0.00000000E+00  0.00000000E+00
  0.00000000E+00  0.00000000E+00  0.00000000E+00
  0.00000000E+00  0.00000000E+00  0.00000000E+00
  0.00000000E+00  0.00000000E+00  0.00000000E+00
  0.00000000E+00  0.00000000E+00  0.00000000E+00
  0.00000000E+00  0.00000000E+00  0.00000000E+00
  0.00000000E+00  0.00000000E+00  0.00000000E+00
  0.00000000E+00  0.00000000E+00  0.00000000E+00
  0.00000000E+00  0.00000000E+00  0.00000000E+00
  0.00000000E+00  0.00000000E+00  0.00000000E+00
  0.00000000E+00  0.00000000E+00  0.00000000E+00
  0.00000000E+00  0.00000000E+00  0.00000000E+00
  0.00000000E+00  0.00000000E+00  0.00000000E+00
  0.00000000E+00  0.00000000E+00  0.00000000E+00
  0.00000000E+00  0.00000000E+00  0.00000000E+00
  0.00000000E+00  0.00000000E+00  0.00000000E+00
  0.00000000E+00  0.00000000E+00  0.00000000E+00
  0.00000000E+00  0.00000000E+00  0.00000000E+00
