title                                   
    1.000000000000000     
     9.9693285131440046   -0.0168584965038975   -0.0008967494106772
    -0.0165130605869045    9.8696571545630363    0.0371058752200309
    -0.0006947661759719    0.0247379525932655    6.6539221364990189
   Nb   Ta   V    Zr
     9     9     9     9
Direct
  0.6597635892653106 -0.0020877142035623  0.5027149395050973
  0.4924522085333828  0.8402051887293061  0.2434018871611830
  0.8243771185912122  0.5000654684480518  0.7592801267530864
  0.8417743931354708  0.8331513952133699  0.2600553394341673
  0.3343838906994465  0.6606847224687329  0.0028143668322971
  0.1753216259285708  0.5040930087128846  0.7636361138060371
  0.4956300119222182  0.1734035647642367  0.2473671538240986
  0.3355988665329968  0.3304496380079009 -0.0031083737151917
  0.1858158506500324  0.1622606981742535  0.2572123229542115
  0.1687079578072919  0.8366807295990596  0.7469899946853595
  0.3385448412396345  0.0090028225374472  0.5105733760194114
  0.6613202535717941  0.6680399998347880 -0.0009268791048839
  0.0009957863157567  0.6622258273951355  0.5064782460652922
  0.6312240169021058  0.3411095704756328  0.5194011829541844
  0.4891943504811934  0.8380374508662204  0.7588729095582907
 -0.0006119588719152  0.6647645580505321 -0.0033057714460691
  0.8180450323563424  0.1712919679425587  0.7235674301906999
  0.8413085213314881  0.8346796248822110  0.7395886183798434
  0.4992416460464146  0.4824059988146572  0.2127630142174309
  0.3366593229638002  0.3255613224815023  0.5042872935259038
  0.6482232280339599  0.3393991417829074 -0.0242540300778966
  0.4988564183065626  0.4867036162065346  0.7877577906080800
  0.0028513624151160 -0.0008320132914606  0.5143996783204648
  0.3388319393875214  0.0125660778708495 -0.0106612593706876
  0.1723093016558934  0.5088889984435755  0.2355582417266608
  0.4907476796171756  0.1699576181278586  0.7508835212829977
  0.2004774047228747  0.1611454689584199  0.7463123141780112
  0.6557433055695806  0.6623164405053871  0.5015197614697928
  0.1661931684871706  0.8363902562528117  0.2532524988306771
  0.3406133267750331  0.6434526892919962  0.4963917733113674
  0.0098000790682770  0.3323351502566046 -0.0063366588084510
  0.0058461949335069  0.0152261837815427 -0.0172549157864713
  0.6632494137756469  0.0014152033219398 -0.0027173806587113
  0.8232292276941305  0.4908441972244558  0.2466835309110115
  0.8250963999633102  0.1726097809214902  0.2680410128703831
  0.0281842241916918  0.3315553471501679  0.5087608295923195
 
  0.00000000E+00  0.00000000E+00  0.00000000E+00
  0.00000000E+00  0.00000000E+00  0.00000000E+00
  0.00000000E+00  0.00000000E+00  0.00000000E+00
  0.00000000E+00  0.00000000E+00  0.00000000E+00
  0.00000000E+00  0.00000000E+00  0.00000000E+00
  0.00000000E+00  0.00000000E+00  0.00000000E+00
  0.00000000E+00  0.00000000E+00  0.00000000E+00
  0.00000000E+00  0.00000000E+00  0.00000000E+00
  0.00000000E+00  0.00000000E+00  0.00000000E+00
  0.00000000E+00  0.00000000E+00  0.00000000E+00
  0.00000000E+00  0.00000000E+00  0.00000000E+00
  0.00000000E+00  0.00000000E+00  0.00000000E+00
  0.00000000E+00  0.00000000E+00  0.00000000E+00
  0.00000000E+00  0.00000000E+00  0.00000000E+00
  0.00000000E+00  0.00000000E+00  0.00000000E+00
  0.00000000E+00  0.00000000E+00  0.00000000E+00
  0.00000000E+00  0.00000000E+00  0.00000000E+00
  0.00000000E+00  0.00000000E+00  0.00000000E+00
  0.00000000E+00  0.00000000E+00  0.00000000E+00
  0.00000000E+00  0.00000000E+00  0.00000000E+00
  0.00000000E+00  0.00000000E+00  0.00000000E+00
  0.00000000E+00  0.00000000E+00  0.00000000E+00
  0.00000000E+00  0.00000000E+00  0.00000000E+00
  0.00000000E+00  0.00000000E+00  0.00000000E+00
  0.00000000E+00  0.00000000E+00  0.00000000E+00
  0.00000000E+00  0.00000000E+00  0.00000000E+00
  0.00000000E+00  0.00000000E+00  0.00000000E+00
  0.00000000E+00  0.00000000E+00  0.00000000E+00
  0.00000000E+00  0.00000000E+00  0.00000000E+00
  0.00000000E+00  0.00000000E+00  0.00000000E+00
  0.00000000E+00  0.00000000E+00  0.00000000E+00
  0.00000000E+00  0.00000000E+00  0.00000000E+00
  0.00000000E+00  0.00000000E+00  0.00000000E+00
  0.00000000E+00  0.00000000E+00  0.00000000E+00
  0.00000000E+00  0.00000000E+00  0.00000000E+00
  0.00000000E+00  0.00000000E+00  0.00000000E+00
