title                                   
    1.000000000000000     
     9.7901527848245475   -0.0588010221206385    0.0295153494445844
    -0.0591220225364622    9.9787939135130639    0.0134681724464303
     0.0195854060920655    0.0089217264050181    6.6820874239184462
   Hf   Mo   Ti
    10     8    18
Direct
  0.1665392343442666  0.1660473734443237  0.7595790353376173
  0.1655434185884011  0.1657303257329703  0.2486643925101785
  0.8291459725454612  0.8244445426207858  0.7506149539015123
  0.6564460468807843  0.3499549661248011  0.0063063874940177
  0.3381623929836722  0.6526116064892821  0.0017779744108255
  0.1688611286920277  0.8383536780945762  0.2646563131558580
  0.1644954380093411  0.8350441464552431  0.7431693594829611
  0.8348202037196795  0.1618221071847152  0.2286315955272903
  0.8267570828981838  0.8421758848798255  0.2432353296151696
  0.0032867065594077  0.6485216702073134  0.0115034799309787
  0.3337488341957800  0.6646562145388198  0.5030635172302392
  0.1645558228754916  0.4932017564682277  0.7399671703722758
  0.3267383311758424  0.3364308978599944  0.5082442114431178
  0.0045055201380658  0.3455684505302786  0.0026407544226736
 -0.0044952831822253  0.6552266383277192  0.4997096765399893
  0.8455514656409995  0.4916108260851287  0.2589790556892085
 -0.0033330678990696  0.3327478168608469  0.5099576812742507
  0.0004368884015260 -0.0019047253866485 -0.0052120858359880
  0.1692700257539513  0.4874884890968648  0.2825514623387944
  0.4894688512952785  0.1671000284626136  0.2567798567554064
  0.3381704824774669  0.3518591405827969 -0.0025402022474721
  0.4777677833948747  0.4906403476922653  0.2909156087857083
  0.6614861305143503  0.6473303524801832  0.0186280589654628
  0.6740825186372145  0.6442515369552899  0.4598046734690977
  0.6595198519723793  0.0119655651229903  0.5244120507952684
  0.6420156170135918  0.0094342286321747 -0.0412744858677313
  0.3609315367596099 -0.0031259602259509 -0.0272509645342052
 -0.0260644275730902  0.0137886162172318  0.5178993892646755
  0.5106764594137951  0.8058427411480689  0.7211870677235865
  0.5058535296508435  0.8391850239601281  0.2606272590514127
  0.4872069593124922  0.1997026658267303  0.7264482100577726
  0.4964838365579466  0.5041577355750528  0.7162394216848690
  0.8483971966614087  0.1838761395996587  0.7704301988231643
  0.6798330913414317  0.3438234115047701  0.4831250639854159
  0.3638723987103337 -0.0008793005703283  0.5307301571448511
  0.8392620215384862  0.5013150614212558  0.7357983713017459
 
  0.00000000E+00  0.00000000E+00  0.00000000E+00
  0.00000000E+00  0.00000000E+00  0.00000000E+00
  0.00000000E+00  0.00000000E+00  0.00000000E+00
  0.00000000E+00  0.00000000E+00  0.00000000E+00
  0.00000000E+00  0.00000000E+00  0.00000000E+00
  0.00000000E+00  0.00000000E+00  0.00000000E+00
  0.00000000E+00  0.00000000E+00  0.00000000E+00
  0.00000000E+00  0.00000000E+00  0.00000000E+00
  0.00000000E+00  0.00000000E+00  0.00000000E+00
  0.00000000E+00  0.00000000E+00  0.00000000E+00
  0.00000000E+00  0.00000000E+00  0.00000000E+00
  0.00000000E+00  0.00000000E+00  0.00000000E+00
  0.00000000E+00  0.00000000E+00  0.00000000E+00
  0.00000000E+00  0.00000000E+00  0.00000000E+00
  0.00000000E+00  0.00000000E+00  0.00000000E+00
  0.00000000E+00  0.00000000E+00  0.00000000E+00
  0.00000000E+00  0.00000000E+00  0.00000000E+00
  0.00000000E+00  0.00000000E+00  0.00000000E+00
  0.00000000E+00  0.00000000E+00  0.00000000E+00
  0.00000000E+00  0.00000000E+00  0.00000000E+00
  0.00000000E+00  0.00000000E+00  0.00000000E+00
  0.00000000E+00  0.00000000E+00  0.00000000E+00
  0.00000000E+00  0.00000000E+00  0.00000000E+00
  0.00000000E+00  0.00000000E+00  0.00000000E+00
  0.00000000E+00  0.00000000E+00  0.00000000E+00
  0.00000000E+00  0.00000000E+00  0.00000000E+00
  0.00000000E+00  0.00000000E+00  0.00000000E+00
  0.00000000E+00  0.00000000E+00  0.00000000E+00
  0.00000000E+00  0.00000000E+00  0.00000000E+00
  0.00000000E+00  0.00000000E+00  0.00000000E+00
  0.00000000E+00  0.00000000E+00  0.00000000E+00
  0.00000000E+00  0.00000000E+00  0.00000000E+00
  0.00000000E+00  0.00000000E+00  0.00000000E+00
  0.00000000E+00  0.00000000E+00  0.00000000E+00
  0.00000000E+00  0.00000000E+00  0.00000000E+00
  0.00000000E+00  0.00000000E+00  0.00000000E+00
