title                                   
    1.000000000000000     
    10.1365311403797786    0.0091276115384632   -0.0283109446600776
     0.0091058102339306   10.1640854974897188   -0.0185955376202166
    -0.0187312703005275   -0.0124614387786218    6.8203445425335705
   Hf   Ta   W    Zr
     9     9     9     9
Direct
  0.6613194227527082  0.6698816932883822 -0.0133346627932079
 -0.0041690960045903  0.6863716353010129 -0.0367766883960843
  0.5012734205481991  0.4854790130350630  0.2376200791653306
  0.1650755128425588  0.4916938513701415  0.7650699488409203
  0.4981885786696694  0.1639813301615655  0.7594253618942929
 -0.0012240407589631  0.0041507440299362 -0.0087658099934891
  0.8338640574159509  0.8336398202719940  0.2524141619701760
 -0.0085331142130534  0.3140286297099495  0.5044694849865233
  0.1653660178328618  0.4967515323840759  0.2415136570395033
 -0.0055281518755758  0.0095236817291676  0.5089826769923517
 -0.0088796859427187  0.3118558338096424 -0.0031230429584912
  0.1769480223035100  0.1703424936758474  0.7543134670090519
  0.6768850280781897  0.3290886177543192  0.5118918578609302
 -0.0023184012026382  0.6799988481866140  0.5364196391122538
  0.1726280407402809  0.1651084534814789  0.2544174277789359
  0.8364987810333798  0.4945440389060379  0.7519857257842376
  0.3412270738206559  0.6640898251505573  0.5073920650864046
  0.6790263965470197  0.3306903032082787 -0.0117703416214684
  0.3237501893224231 -0.0033728929863136  0.4962040338521422
  0.1711860501609793  0.8413004584628438  0.7240615709572090
  0.8280627393169248  0.1618779407170758  0.2415149014988378
  0.8277789244751621  0.8464155179377291  0.7458749140054752
  0.3322969076475584  0.3301232287181979 -0.0072633072051268
  0.5004451480771243  0.4868763542182186  0.7594158991107317
  0.8261855641990712  0.1662168093836907  0.7566055033455610
  0.6803281878804818  0.0041693507722974 -0.0033292077861018
  0.4940066906663563  0.8390745095311370  0.2613920616005999
  0.4962426200770621  0.8541088482421503  0.7411107970727284
  0.6727971933012949  0.0045445767949827  0.4952850878308612
  0.1613611603990922  0.8276308891259087  0.2686161344048394
  0.6586835525163186  0.6656479404060830  0.5086957096201562
  0.3402190214469172  0.3413017574558309  0.5072039355785780
  0.8429788626192329  0.5041263594687756  0.2500374456875338
  0.3432394467165976  0.6725142253448954 -0.0022395271320082
  0.5016529538182357  0.1669462561685038  0.2397275496862877
  0.3211369247717220 -0.0107224752160718  0.0049414901135238
 
  0.00000000E+00  0.00000000E+00  0.00000000E+00
  0.00000000E+00  0.00000000E+00  0.00000000E+00
  0.00000000E+00  0.00000000E+00  0.00000000E+00
  0.00000000E+00  0.00000000E+00  0.00000000E+00
  0.00000000E+00  0.00000000E+00  0.00000000E+00
  0.00000000E+00  0.00000000E+00  0.00000000E+00
  0.00000000E+00  0.00000000E+00  0.00000000E+00
  0.00000000E+00  0.00000000E+00  0.00000000E+00
  0.00000000E+00  0.00000000E+00  0.00000000E+00
  0.00000000E+00  0.00000000E+00  0.00000000E+00
  0.00000000E+00  0.00000000E+00  0.00000000E+00
  0.00000000E+00  0.00000000E+00  0.00000000E+00
  0.00000000E+00  0.00000000E+00  0.00000000E+00
  0.00000000E+00  0.00000000E+00  0.00000000E+00
  0.00000000E+00  0.00000000E+00  0.00000000E+00
  0.00000000E+00  0.00000000E+00  0.00000000E+00
  0.00000000E+00  0.00000000E+00  0.00000000E+00
  0.00000000E+00  0.00000000E+00  0.00000000E+00
  0.00000000E+00  0.00000000E+00  0.00000000E+00
  0.00000000E+00  0.00000000E+00  0.00000000E+00
  0.00000000E+00  0.00000000E+00  0.00000000E+00
  0.00000000E+00  0.00000000E+00  0.00000000E+00
  0.00000000E+00  0.00000000E+00  0.00000000E+00
  0.00000000E+00  0.00000000E+00  0.00000000E+00
  0.00000000E+00  0.00000000E+00  0.00000000E+00
  0.00000000E+00  0.00000000E+00  0.00000000E+00
  0.00000000E+00  0.00000000E+00  0.00000000E+00
  0.00000000E+00  0.00000000E+00  0.00000000E+00
  0.00000000E+00  0.00000000E+00  0.00000000E+00
  0.00000000E+00  0.00000000E+00  0.00000000E+00
  0.00000000E+00  0.00000000E+00  0.00000000E+00
  0.00000000E+00  0.00000000E+00  0.00000000E+00
  0.00000000E+00  0.00000000E+00  0.00000000E+00
  0.00000000E+00  0.00000000E+00  0.00000000E+00
  0.00000000E+00  0.00000000E+00  0.00000000E+00
  0.00000000E+00  0.00000000E+00  0.00000000E+00
