title                                   
    1.000000000000000     
     9.8071149827399644    0.0028890523898678    0.0126860184511897
     0.0027992145390789    9.7385125385709994   -0.0133208722605023
     0.0084194221784084   -0.0088726367338497    6.4931203048753066
   Mo   Nb   Ta   Ti   Zr
    15     3    11     4     3
Direct
 -0.0048600291943064  0.3379318102653756  0.4996286327007308
  0.1622646409272649  0.8374079033550431  0.7476492622581801
 -0.0005555019464097 -0.0018575806405626  0.0056712584639611
  0.1610209735414919  0.4974727994067512  0.2593222630942203
  0.6726686789159164  0.3312684165162840 -0.0019694293066152
  0.1604847521522489  0.8374439122842621  0.2547848005713218
  0.3314624664298181  0.3299430829361659  0.5001829610490542
  0.8388727743792675  0.1695482612892440  0.2488331615184355
  0.8351668844214575  0.4974073839380644  0.7477577426496232
  0.4971176743397509  0.1714269102667073  0.2520030094520316
  0.8344864953141918  0.5000646157968358  0.2512430344490373
  0.8371637632357073  0.8334157269659614  0.7475389260356203
  0.8389173454111460  0.8318700777643233  0.2519799857163370
  0.5003667663518476  0.8311555863683775  0.2569043372140729
 -0.0012017628768195  0.6680495607630591  0.5008746780931552
  0.3343879566680934 -0.0046664495372959  0.4982388347038146
  0.1631882409689729  0.4967803756726765  0.7433727390802009
 -0.0024374074552323 -0.0055352396491024  0.5014028951632920
  0.6704924601830249  0.0005970951481782  0.4908777639930243
  0.4981663830591407  0.1730099646588829  0.7465784197481383
  0.6764794235947920  0.6673364237160828  0.4979665815121423
  0.1641523812106447  0.1686349957213665  0.2581587858007943
 -0.0016747482623920  0.3406048787798128  0.0064585406012292
  0.3327518161886769  0.0004646201795036  0.0066810743042982
 -0.0028862512773926  0.6684093450571332  0.0015179026463722
  0.5028849956917157  0.4943421501803050  0.7429933164276668
  0.3249763338738385  0.6698070967462209  0.4969143901328109
  0.6769427401523415  0.6690502025919833 -0.0025032114926757
  0.1620121473485439  0.1677451904724555  0.7490302134883319
  0.6784203538262182  0.3272351615360358  0.4928917603844838
  0.8400071424486408  0.1701913905418967  0.7542185661097757
  0.5016067885617242  0.8299783953236923  0.7409678383723155
  0.3247131717742678  0.3312878491654871  0.0030268684630593
  0.6668477934363688 -0.0012524408199336  0.0029982827589864
  0.5016137864640962  0.4912405528406910  0.2455777922509364
  0.3239785701413409  0.6721899743980343  0.0002260215918370
 
  0.00000000E+00  0.00000000E+00  0.00000000E+00
  0.00000000E+00  0.00000000E+00  0.00000000E+00
  0.00000000E+00  0.00000000E+00  0.00000000E+00
  0.00000000E+00  0.00000000E+00  0.00000000E+00
  0.00000000E+00  0.00000000E+00  0.00000000E+00
  0.00000000E+00  0.00000000E+00  0.00000000E+00
  0.00000000E+00  0.00000000E+00  0.00000000E+00
  0.00000000E+00  0.00000000E+00  0.00000000E+00
  0.00000000E+00  0.00000000E+00  0.00000000E+00
  0.00000000E+00  0.00000000E+00  0.00000000E+00
  0.00000000E+00  0.00000000E+00  0.00000000E+00
  0.00000000E+00  0.00000000E+00  0.00000000E+00
  0.00000000E+00  0.00000000E+00  0.00000000E+00
  0.00000000E+00  0.00000000E+00  0.00000000E+00
  0.00000000E+00  0.00000000E+00  0.00000000E+00
  0.00000000E+00  0.00000000E+00  0.00000000E+00
  0.00000000E+00  0.00000000E+00  0.00000000E+00
  0.00000000E+00  0.00000000E+00  0.00000000E+00
  0.00000000E+00  0.00000000E+00  0.00000000E+00
  0.00000000E+00  0.00000000E+00  0.00000000E+00
  0.00000000E+00  0.00000000E+00  0.00000000E+00
  0.00000000E+00  0.00000000E+00  0.00000000E+00
  0.00000000E+00  0.00000000E+00  0.00000000E+00
  0.00000000E+00  0.00000000E+00  0.00000000E+00
  0.00000000E+00  0.00000000E+00  0.00000000E+00
  0.00000000E+00  0.00000000E+00  0.00000000E+00
  0.00000000E+00  0.00000000E+00  0.00000000E+00
  0.00000000E+00  0.00000000E+00  0.00000000E+00
  0.00000000E+00  0.00000000E+00  0.00000000E+00
  0.00000000E+00  0.00000000E+00  0.00000000E+00
  0.00000000E+00  0.00000000E+00  0.00000000E+00
  0.00000000E+00  0.00000000E+00  0.00000000E+00
  0.00000000E+00  0.00000000E+00  0.00000000E+00
  0.00000000E+00  0.00000000E+00  0.00000000E+00
  0.00000000E+00  0.00000000E+00  0.00000000E+00
  0.00000000E+00  0.00000000E+00  0.00000000E+00
