title                                   
    1.000000000000000     
     9.8885435658623351    0.0274510264507766    0.0098833482664036
     0.0279298586361179   10.0010773705620846   -0.0628065493836204
     0.0065611379247937   -0.0419481169388069    6.7110681269090513
   Ti   W    Zr
    18     8    10
Direct
  0.6476376732496534  0.6438791732810265 -0.0167214660115885
  0.8339324887616335  0.8501310024795293  0.7285155617088682
  0.8300156233475662  0.5095622035750075  0.2061492296983589
  0.8388815037335141  0.4871726090137984  0.7772434336957789
  0.1742662907409832  0.8569368352493226  0.2543789621540720
  0.6618171447417120  0.3395873048095101  0.4838182659694553
  0.0112257620887098  0.6724827025697664 -0.0025290970540238
  0.0001917835030240  0.3289332465097179  0.0479399694295057
 -0.0014895035097856 -0.0177053132017701  0.0013562187376486
  0.3432381496580683  0.3322377857165397  0.0203025317481377
  0.8461774891278679  0.1525177180179945  0.2824731739089813
  0.1700376402329511  0.8545568671466967  0.7423315934295708
 -0.0082285040797561  0.3459552046748273  0.4608543470177935
  0.1646027863616755  0.1574985836504344  0.2563364597332251
  0.4979213036306985  0.1742578621984320  0.7434212766639063
  0.3409903170168843  0.0129364628403176  0.4842298730165267
  0.4981441917437047  0.8473456282445275  0.2426785656431743
  0.6522607400658073  0.3368912257084865  0.0157649605702313
  0.3396709663319934  0.0138689256131288  0.0221044017185815
  0.3408942789605836  0.3321495969328619  0.4853116594462763
  0.4949706019311844  0.4734720028194948  0.7440056714387326
  0.5007624306476027  0.4896180306016472  0.2488160155616277
  0.6534552638638534  0.0144815935436261  0.4941593253335137
  0.4955726687772563  0.1676497102515736  0.2626532529835118
  0.1699607013556808  0.4870022061410479  0.2490791200491883
  0.0083296220773518 -0.0058527631361736  0.4998893228331126
  0.6731122042515143  0.0244724036789321  0.0074684424546998
  0.1701612426326927  0.1617762599143479  0.7565909206427963
  0.6635607098964874  0.6501787013901777  0.5090503413416481
  0.4992341912606483  0.8502783933511310  0.7553509259268333
  0.1558349885976849  0.4720456989774194  0.7578267032190483
  0.3332489222670334  0.6586220327300253  0.0012556110751694
  0.8405210735605331  0.1712081238017284  0.7354623649849108
  0.3312704930573985  0.6570291598022465  0.4907828390594108
  0.8237560119198063  0.8364660735198223  0.2573598389803435
  0.0040607481957822  0.6603567475827998  0.4942893828909722
 
  0.00000000E+00  0.00000000E+00  0.00000000E+00
  0.00000000E+00  0.00000000E+00  0.00000000E+00
  0.00000000E+00  0.00000000E+00  0.00000000E+00
  0.00000000E+00  0.00000000E+00  0.00000000E+00
  0.00000000E+00  0.00000000E+00  0.00000000E+00
  0.00000000E+00  0.00000000E+00  0.00000000E+00
  0.00000000E+00  0.00000000E+00  0.00000000E+00
  0.00000000E+00  0.00000000E+00  0.00000000E+00
  0.00000000E+00  0.00000000E+00  0.00000000E+00
  0.00000000E+00  0.00000000E+00  0.00000000E+00
  0.00000000E+00  0.00000000E+00  0.00000000E+00
  0.00000000E+00  0.00000000E+00  0.00000000E+00
  0.00000000E+00  0.00000000E+00  0.00000000E+00
  0.00000000E+00  0.00000000E+00  0.00000000E+00
  0.00000000E+00  0.00000000E+00  0.00000000E+00
  0.00000000E+00  0.00000000E+00  0.00000000E+00
  0.00000000E+00  0.00000000E+00  0.00000000E+00
  0.00000000E+00  0.00000000E+00  0.00000000E+00
  0.00000000E+00  0.00000000E+00  0.00000000E+00
  0.00000000E+00  0.00000000E+00  0.00000000E+00
  0.00000000E+00  0.00000000E+00  0.00000000E+00
  0.00000000E+00  0.00000000E+00  0.00000000E+00
  0.00000000E+00  0.00000000E+00  0.00000000E+00
  0.00000000E+00  0.00000000E+00  0.00000000E+00
  0.00000000E+00  0.00000000E+00  0.00000000E+00
  0.00000000E+00  0.00000000E+00  0.00000000E+00
  0.00000000E+00  0.00000000E+00  0.00000000E+00
  0.00000000E+00  0.00000000E+00  0.00000000E+00
  0.00000000E+00  0.00000000E+00  0.00000000E+00
  0.00000000E+00  0.00000000E+00  0.00000000E+00
  0.00000000E+00  0.00000000E+00  0.00000000E+00
  0.00000000E+00  0.00000000E+00  0.00000000E+00
  0.00000000E+00  0.00000000E+00  0.00000000E+00
  0.00000000E+00  0.00000000E+00  0.00000000E+00
  0.00000000E+00  0.00000000E+00  0.00000000E+00
  0.00000000E+00  0.00000000E+00  0.00000000E+00
