title                                   
    1.000000000000000     
     9.9452761387711206    0.0171729698491041    0.0224914214240006
     0.0171737229407880   10.0483609738598769   -0.0007078399459637
     0.0150200394841747   -0.0003858727999601    6.6254916213881847
   Ta   Ti   W    Zr
     9     9     9     9
Direct
  0.1593990611722299  0.5018806305766430  0.7328610140927911
 -0.0042332118767475  0.3215568489503629 -0.0046583078307012
  0.8273479205275592  0.5032645584934954  0.7620109498496548
  0.6755545731491094  0.3137915359431480  0.0027144650268489
  0.6739288840549631  0.0061324180672290  0.0027497366642543
  0.3259831432141776  0.6719917367266082  0.0067596980644010
 -0.0059910523369984  0.6764861702523444  0.4902449912347235
  0.1704375392143817  0.1592517573196016  0.2510404741089827
  0.4969847047974461  0.8405928877386581  0.2256424431555522
  0.6752335431360391  0.3145293776421281  0.4956008008366939
  0.4928677766222659  0.8490064372272115  0.7681228841123415
  0.3318315222098057  0.3173492824105243  0.5060368827160289
  0.4919392908111869  0.1525681166664565  0.7485762633369678
  0.8363010745088223  0.8292166160272135  0.7651494293037847
 -0.0075195652369459  0.0055628128226484  0.0149443834638655
  0.8251448158391429  0.4966098766288394  0.2399014220070598
 -0.0052322025203509  0.0029893885998693  0.4875263702303864
  0.1625852639015954  0.4944570857641651  0.2791508967593576
  0.4930657094457239  0.1600261437199869  0.2487637216881956
  0.8324606354539759  0.1628778777138888  0.7576592734758165
  0.1741461422758354  0.1535973788426318  0.7497213910602135
  0.3312589370405457  0.0058542306213483  0.0045544435473039
  0.3324330172424348  0.0066290349973419  0.4916999215192321
  0.1727419711479749  0.8467940381902523  0.2507408853845750
  0.8326992494352158  0.8325502590228909  0.2338592531193389
  0.8347489055132493  0.1682224886267669  0.2447731393871568
  0.6753984117226920  0.6796453799111819  0.0032907079333669
  0.3273399299884611  0.3332349966042499 -0.0053199148011353
  0.5133005428156837  0.5031630967485828  0.7591772883031708
  0.0056284178870363  0.6643021036918711  0.0143992980402483
  0.5131712093490980  0.4998948605492090  0.2372661345658431
  0.6711278830314807  0.0016951207750348  0.4970195617529430
 -0.0062679082229513  0.3229895486251323  0.5052869746530395
  0.1648058550832887  0.8457665040748090  0.7486382410116696
  0.6759774469690040  0.6800442009548004  0.4927729779625272
  0.3334005626335690  0.6754751984728719  0.4913219042635031
 
  0.00000000E+00  0.00000000E+00  0.00000000E+00
  0.00000000E+00  0.00000000E+00  0.00000000E+00
  0.00000000E+00  0.00000000E+00  0.00000000E+00
  0.00000000E+00  0.00000000E+00  0.00000000E+00
  0.00000000E+00  0.00000000E+00  0.00000000E+00
  0.00000000E+00  0.00000000E+00  0.00000000E+00
  0.00000000E+00  0.00000000E+00  0.00000000E+00
  0.00000000E+00  0.00000000E+00  0.00000000E+00
  0.00000000E+00  0.00000000E+00  0.00000000E+00
  0.00000000E+00  0.00000000E+00  0.00000000E+00
  0.00000000E+00  0.00000000E+00  0.00000000E+00
  0.00000000E+00  0.00000000E+00  0.00000000E+00
  0.00000000E+00  0.00000000E+00  0.00000000E+00
  0.00000000E+00  0.00000000E+00  0.00000000E+00
  0.00000000E+00  0.00000000E+00  0.00000000E+00
  0.00000000E+00  0.00000000E+00  0.00000000E+00
  0.00000000E+00  0.00000000E+00  0.00000000E+00
  0.00000000E+00  0.00000000E+00  0.00000000E+00
  0.00000000E+00  0.00000000E+00  0.00000000E+00
  0.00000000E+00  0.00000000E+00  0.00000000E+00
  0.00000000E+00  0.00000000E+00  0.00000000E+00
  0.00000000E+00  0.00000000E+00  0.00000000E+00
  0.00000000E+00  0.00000000E+00  0.00000000E+00
  0.00000000E+00  0.00000000E+00  0.00000000E+00
  0.00000000E+00  0.00000000E+00  0.00000000E+00
  0.00000000E+00  0.00000000E+00  0.00000000E+00
  0.00000000E+00  0.00000000E+00  0.00000000E+00
  0.00000000E+00  0.00000000E+00  0.00000000E+00
  0.00000000E+00  0.00000000E+00  0.00000000E+00
  0.00000000E+00  0.00000000E+00  0.00000000E+00
  0.00000000E+00  0.00000000E+00  0.00000000E+00
  0.00000000E+00  0.00000000E+00  0.00000000E+00
  0.00000000E+00  0.00000000E+00  0.00000000E+00
  0.00000000E+00  0.00000000E+00  0.00000000E+00
  0.00000000E+00  0.00000000E+00  0.00000000E+00
  0.00000000E+00  0.00000000E+00  0.00000000E+00
