title                                   
    1.000000000000000     
     9.7457642866501448   -0.0252216013045278    0.0072796212652072
    -0.0253035991616593    9.6933680396156543    0.0010790362666239
     0.0048832169136758    0.0007133267261727    6.4599019880308610
   Hf   Mo   Ta   W    Zr
     3    15     4    11     3
Direct
  0.8232609821425079  0.5028315659969983  0.7489498193916306
  0.0093126613451367  0.3393242965440988  0.0110780699117901
  0.8331247235438047  0.1642782777406842  0.7456961595706270
  0.3355295196515792  0.3328155342320210  0.0013898701151909
  0.4970162129018344  0.4977297926961933  0.2479595895323557
  0.1805611485229886  0.5046769808406230  0.7480654437649027
  0.1686811220244448  0.8349767162313342  0.7447902002794738
  0.1801077740466789  0.5052799706666818  0.2530390114905664
  0.1682038602438410  0.8344123993645924  0.2564246850881313
  0.3367412324035605  0.3334378954731794  0.4993653023695093
  0.3332342420312578  0.6656198533495253  0.5003175454780884
  0.4971958414287672  0.1692259725577688  0.7480900380406215
  0.0040536633764853 -0.0048318447493343  0.0036320870011831
  0.0036605073779365 -0.0033359103683997  0.4970101311154470
  0.6621353256236691  0.6683623466113792  0.0020435918714113
  0.0003734922728046  0.6747517460463107  0.4964790757834746
  0.4948967185168437  0.8287528103353018  0.2518872495257019
  0.3337930445001652  0.6641677639368618 -0.0008133581764777
  0.3349577774366647 -0.0044050756060601  0.0009765587846761
  0.1712826656951328  0.1615298403182986  0.7476496580917122
  0.6590838494370836  0.6693193066183383  0.4939468206028890
  0.8306825402088507  0.1638446364650180  0.2564439123201302
  0.1744315922139371  0.1609946014788669  0.2523385243604199
  0.6613773757594195 -0.0057484804139697  0.4969531202463435
  0.4978437908802020  0.1702234705956669  0.2552497386421020
  0.8339757105722807  0.8343479167928739  0.7436859655793061
  0.6575434291705090  0.3331559068454760  0.0054599789932269
  0.6569719912433705  0.3345059756822147  0.4952218677481713
  0.4989479760013963  0.4985803837066139  0.7511899930535586
  0.4944800411240098  0.8276471976235684  0.7456123590542836
  0.3338577979798268 -0.0037801980563182  0.4995214920513195
  0.8220183440196567  0.5042400367165975  0.2512903318444594
  0.8352143271902891  0.8357326762443751  0.2543196035682855
  0.0057033417710466  0.6683414174385949  0.0022151778914701
  0.6602014509072048 -0.0039350421317823  0.0006021179051758
  0.0095439264348128  0.3429292621758065  0.4919182671088432
 
  0.00000000E+00  0.00000000E+00  0.00000000E+00
  0.00000000E+00  0.00000000E+00  0.00000000E+00
  0.00000000E+00  0.00000000E+00  0.00000000E+00
  0.00000000E+00  0.00000000E+00  0.00000000E+00
  0.00000000E+00  0.00000000E+00  0.00000000E+00
  0.00000000E+00  0.00000000E+00  0.00000000E+00
  0.00000000E+00  0.00000000E+00  0.00000000E+00
  0.00000000E+00  0.00000000E+00  0.00000000E+00
  0.00000000E+00  0.00000000E+00  0.00000000E+00
  0.00000000E+00  0.00000000E+00  0.00000000E+00
  0.00000000E+00  0.00000000E+00  0.00000000E+00
  0.00000000E+00  0.00000000E+00  0.00000000E+00
  0.00000000E+00  0.00000000E+00  0.00000000E+00
  0.00000000E+00  0.00000000E+00  0.00000000E+00
  0.00000000E+00  0.00000000E+00  0.00000000E+00
  0.00000000E+00  0.00000000E+00  0.00000000E+00
  0.00000000E+00  0.00000000E+00  0.00000000E+00
  0.00000000E+00  0.00000000E+00  0.00000000E+00
  0.00000000E+00  0.00000000E+00  0.00000000E+00
  0.00000000E+00  0.00000000E+00  0.00000000E+00
  0.00000000E+00  0.00000000E+00  0.00000000E+00
  0.00000000E+00  0.00000000E+00  0.00000000E+00
  0.00000000E+00  0.00000000E+00  0.00000000E+00
  0.00000000E+00  0.00000000E+00  0.00000000E+00
  0.00000000E+00  0.00000000E+00  0.00000000E+00
  0.00000000E+00  0.00000000E+00  0.00000000E+00
  0.00000000E+00  0.00000000E+00  0.00000000E+00
  0.00000000E+00  0.00000000E+00  0.00000000E+00
  0.00000000E+00  0.00000000E+00  0.00000000E+00
  0.00000000E+00  0.00000000E+00  0.00000000E+00
  0.00000000E+00  0.00000000E+00  0.00000000E+00
  0.00000000E+00  0.00000000E+00  0.00000000E+00
  0.00000000E+00  0.00000000E+00  0.00000000E+00
  0.00000000E+00  0.00000000E+00  0.00000000E+00
  0.00000000E+00  0.00000000E+00  0.00000000E+00
  0.00000000E+00  0.00000000E+00  0.00000000E+00
