title                                   
    1.000000000000000     
    10.0758932457749317   -0.0506162824214139    0.0559847557295140
    -0.0506169074574536   10.0151922548941545   -0.0594738792032540
     0.0373330196374099   -0.0394142464806087    6.7601101187863213
   Hf   Mo   Ta   W    Zr
    12     6    15     2     1
Direct
  0.8368429185442430  0.1669414205873664  0.2618588654037613
  0.1735625839056452  0.8415069729772487  0.2211039219087334
  0.1728246676787769  0.1724199526213143  0.2472867223435558
  0.5009224273096601  0.8234357204467116  0.7634002134004542
  0.4901193500635564  0.1704523121152503  0.2582130652680686
 -0.0048640223064077 -0.0025334600352267  0.5217966505939851
 -0.0132506993934803  0.0077221838865610 -0.0299896355246585
  0.0000277113325576  0.6633565801270593  0.4860039814243401
  0.1841193683851090  0.8329470179495533  0.7817910810102661
  0.3348389576509403  0.6770343125986780  0.4800808508343710
  0.6658289982746698  0.3319297762696552 -0.0122883919315244
  0.1726498302533786  0.4972429559698230  0.7525267301804274
  0.3367297803215568  0.3378933960419182  0.5002468858775151
  0.6669985322484913  0.6613561833043675  0.4983762171194397
  0.5022207867643994  0.8340097674089696  0.2543253071942681
  0.3448522715521058  0.6578034288052430  0.0169374828108626
  0.3453074681640531  0.0092811786601481 -0.0058298847976233
  0.4940382073666560  0.1630831287757274  0.7454837657181891
  0.8234947926848969  0.8300299702855354  0.2624423708723674
  0.1730504374436324  0.4953299570816971  0.2330866274857922
  0.4977278786830719  0.4931116245560044  0.2571613671904915
  0.6680763371671522  0.6592783113599359  0.0195900437832864
  0.8310331930609124  0.5054870055266686  0.7482471415825226
 -0.0072091689562359  0.3435385807253769  0.4983022112184775
 -0.0076944039835665  0.3345933816906776 -0.0107905064106518
  0.4985482006975694  0.5049034734583538  0.7468449238380269
  0.1764324550828727  0.1790880824807992  0.7375905822332870
  0.6610737821048016  0.0019581586812410  0.5120079651529127
 -0.0144776548812463  0.6575637010668992  0.0163822716905362
  0.3431804137065186  0.3318882926341096 -0.0134959038940184
  0.6692779810488395  0.3345315050992814  0.5133900125896449
  0.8132788236466170  0.8145044229693627  0.7446207289495961
  0.3452605322623645 -0.0054724871877002  0.5044945338529516
  0.8294863668030665  0.4975658304767384  0.2537947935580999
  0.8308667875931146  0.1772198146589252  0.7332926510479508
  0.6648241077197085 -0.0010024540742732  0.0017143564242943
 
  0.00000000E+00  0.00000000E+00  0.00000000E+00
  0.00000000E+00  0.00000000E+00  0.00000000E+00
  0.00000000E+00  0.00000000E+00  0.00000000E+00
  0.00000000E+00  0.00000000E+00  0.00000000E+00
  0.00000000E+00  0.00000000E+00  0.00000000E+00
  0.00000000E+00  0.00000000E+00  0.00000000E+00
  0.00000000E+00  0.00000000E+00  0.00000000E+00
  0.00000000E+00  0.00000000E+00  0.00000000E+00
  0.00000000E+00  0.00000000E+00  0.00000000E+00
  0.00000000E+00  0.00000000E+00  0.00000000E+00
  0.00000000E+00  0.00000000E+00  0.00000000E+00
  0.00000000E+00  0.00000000E+00  0.00000000E+00
  0.00000000E+00  0.00000000E+00  0.00000000E+00
  0.00000000E+00  0.00000000E+00  0.00000000E+00
  0.00000000E+00  0.00000000E+00  0.00000000E+00
  0.00000000E+00  0.00000000E+00  0.00000000E+00
  0.00000000E+00  0.00000000E+00  0.00000000E+00
  0.00000000E+00  0.00000000E+00  0.00000000E+00
  0.00000000E+00  0.00000000E+00  0.00000000E+00
  0.00000000E+00  0.00000000E+00  0.00000000E+00
  0.00000000E+00  0.00000000E+00  0.00000000E+00
  0.00000000E+00  0.00000000E+00  0.00000000E+00
  0.00000000E+00  0.00000000E+00  0.00000000E+00
  0.00000000E+00  0.00000000E+00  0.00000000E+00
  0.00000000E+00  0.00000000E+00  0.00000000E+00
  0.00000000E+00  0.00000000E+00  0.00000000E+00
  0.00000000E+00  0.00000000E+00  0.00000000E+00
  0.00000000E+00  0.00000000E+00  0.00000000E+00
  0.00000000E+00  0.00000000E+00  0.00000000E+00
  0.00000000E+00  0.00000000E+00  0.00000000E+00
  0.00000000E+00  0.00000000E+00  0.00000000E+00
  0.00000000E+00  0.00000000E+00  0.00000000E+00
  0.00000000E+00  0.00000000E+00  0.00000000E+00
  0.00000000E+00  0.00000000E+00  0.00000000E+00
  0.00000000E+00  0.00000000E+00  0.00000000E+00
  0.00000000E+00  0.00000000E+00  0.00000000E+00
