title                                   
    1.000000000000000     
     9.5265675494085773   -0.0110254142440712   -0.0015847332747030
    -0.0110226425520342    9.5243667385366475   -0.0106888418920300
    -0.0010520238666260   -0.0071244656165208    6.3422064234201816
   Cr   Mo   W    Zr
     4    10    19     3
Direct
  0.8389854909924513  0.4990044573139231  0.2585390555418497
  0.8357976248496836  0.8367922327658014  0.2533574985546210
  0.6682978011237101 -0.0006455334856816 -0.0009330064021518
  0.1665308944034132  0.1677352759723883  0.7500037383774794
  0.4991743588269306  0.1637729472774699  0.7482230997635312
  0.4999845482999754  0.1637721318428038  0.2511448373167405
  0.6681258195555598  0.3333866355511750  0.4976682200971854
  0.5015676691382144  0.8381372177287234  0.2505491594488475
  0.0009681771843153  0.3315664943151996 -0.0005294329324172
  0.3346062844765239  0.6657516100103946 -0.0020940340884961
  0.8373344197950809  0.4995492868826039  0.7439144309256231
  0.1658802447622161  0.1672559988189782  0.2484430865895248
  0.1656753830640446  0.8343179886045745  0.7502117149126081
  0.6684006510182806 -0.0016111214704828  0.4955417980004722
  0.3346790269037427  0.6649944394251014  0.5032034521230668
  0.3307002499154792  0.3305634225486928 -0.0022863495115633
  0.3356558646929528  0.0045508537855362  0.5038961107564314
  0.8356869376398208  0.1624258735403750  0.7485059651528934
  0.4946307909238565  0.5007466745319371  0.7456986493240086
  0.8334298438704496  0.8379042970318059  0.7478702543861737
  0.1649394487855281  0.4979957094241946  0.7505557037232332
  0.4945008069503771  0.4994068602162272  0.2566330957348147
 -0.0063732218690762  0.6635468050048133  0.4980951477551294
  0.3302809878157525  0.3309989852963941  0.5020088782168497
 -0.0000419559774488  0.3324609270708108  0.4995617413124774
  0.1639588533644482  0.4984931947252759  0.2500512895527343
  0.3349552205249422  0.0051979856883156 -0.0056252744554063
 -0.0023174742901689  0.0018950106008918 -0.0030193851495368
  0.6691680857033194  0.6683584903810940  0.4982883871455004
  0.8344611197658259  0.1615362330280593  0.2507790301596123
  0.5013341754653985  0.8381816681641646  0.7493253262761631
 -0.0051902999204620  0.6638933674147348  0.0004614423474756
 -0.0019591938157322  0.0026520536775880  0.5026544047017238
  0.6679558621961244  0.3329538034064398  0.0024604135203246
  0.1662377497671665  0.8330294343390433  0.2483290238643690
  0.6719777540973025  0.6694282885706325  0.0085125269581063
 
  0.00000000E+00  0.00000000E+00  0.00000000E+00
  0.00000000E+00  0.00000000E+00  0.00000000E+00
  0.00000000E+00  0.00000000E+00  0.00000000E+00
  0.00000000E+00  0.00000000E+00  0.00000000E+00
  0.00000000E+00  0.00000000E+00  0.00000000E+00
  0.00000000E+00  0.00000000E+00  0.00000000E+00
  0.00000000E+00  0.00000000E+00  0.00000000E+00
  0.00000000E+00  0.00000000E+00  0.00000000E+00
  0.00000000E+00  0.00000000E+00  0.00000000E+00
  0.00000000E+00  0.00000000E+00  0.00000000E+00
  0.00000000E+00  0.00000000E+00  0.00000000E+00
  0.00000000E+00  0.00000000E+00  0.00000000E+00
  0.00000000E+00  0.00000000E+00  0.00000000E+00
  0.00000000E+00  0.00000000E+00  0.00000000E+00
  0.00000000E+00  0.00000000E+00  0.00000000E+00
  0.00000000E+00  0.00000000E+00  0.00000000E+00
  0.00000000E+00  0.00000000E+00  0.00000000E+00
  0.00000000E+00  0.00000000E+00  0.00000000E+00
  0.00000000E+00  0.00000000E+00  0.00000000E+00
  0.00000000E+00  0.00000000E+00  0.00000000E+00
  0.00000000E+00  0.00000000E+00  0.00000000E+00
  0.00000000E+00  0.00000000E+00  0.00000000E+00
  0.00000000E+00  0.00000000E+00  0.00000000E+00
  0.00000000E+00  0.00000000E+00  0.00000000E+00
  0.00000000E+00  0.00000000E+00  0.00000000E+00
  0.00000000E+00  0.00000000E+00  0.00000000E+00
  0.00000000E+00  0.00000000E+00  0.00000000E+00
  0.00000000E+00  0.00000000E+00  0.00000000E+00
  0.00000000E+00  0.00000000E+00  0.00000000E+00
  0.00000000E+00  0.00000000E+00  0.00000000E+00
  0.00000000E+00  0.00000000E+00  0.00000000E+00
  0.00000000E+00  0.00000000E+00  0.00000000E+00
  0.00000000E+00  0.00000000E+00  0.00000000E+00
  0.00000000E+00  0.00000000E+00  0.00000000E+00
  0.00000000E+00  0.00000000E+00  0.00000000E+00
  0.00000000E+00  0.00000000E+00  0.00000000E+00
