title                                   
    1.000000000000000     
    10.1071982309265564   -0.0370925132768511    0.0810568318056321
    -0.0371621297449241    9.9743320291222464   -0.0040252587394861
     0.0550932384366084   -0.0027306733566177    6.8965610541998483
   Hf   Ta   Ti   W    Zr
     7     7     7     7     8
Direct
  0.1742579809798890  0.1653283511096624  0.7568974256903259
  0.4887569776354915  0.4842848799683508  0.7149253310943697
  0.6947467416820695  0.3160397234243491  0.5324541940272048
  0.6729948657667992  0.3268861445827773 -0.0185938318665788
  0.1596278846685044  0.8286369418466473  0.2259129995166374
  0.6661833921527877 -0.0000551783371330 -0.0047886583301728
  0.0039561968459317  0.3336306275993718  0.5036919190011493
 -0.0001250873715626  0.3312628125847857 -0.0015557915380989
  0.3376477464472651  0.6735563791172279 -0.0148277906362351
  0.1604144625991202  0.5118685530834728  0.2176004731161289
  0.3075485781261653  0.3330184484647570  0.4675831008334071
  0.4888680913666328  0.8480515938625725  0.2550294789582780
  0.3335133448286007  0.0016600184498362  0.0019688935285365
  0.8459601693861999  0.8347747791195408  0.7698497837809111
  0.8423773281505796  0.1627869316056871  0.2315940142309429
  0.6871948197031320 -0.0062285673236053  0.5062706492686880
  0.5021051766007822  0.4954452503407581  0.2789276953796547
  0.4845061888072901  0.8613639862410022  0.7325410113476273
  0.4870087384574041  0.1593631031066523  0.7275120418378384
  0.3074604952462908 -0.0110123681195576  0.4949981406298112
  0.1649434553115229  0.5028513491785868  0.7746990014426719
  0.1580942533733460  0.1606344137433665  0.2312968498410602
 -0.0021305731177412 -0.0003426048008429 -0.0001802809100990
  0.1661456597152175  0.8351437930568523  0.7746081820367318
  0.8442296295363348  0.8362365277252781  0.2313606660255378
  0.8494188541603741  0.5057050689996588  0.7728144917912900
  0.8549171306926922  0.1571671896974421  0.7784691537701829
 -0.0047864613992412  0.6681467370637086 -0.0078569401117423
  0.3388022747218515  0.3331231441243858  0.0188692474875527
 -0.0007202921557396  0.6656512345114567  0.5096512049091589
  0.3256691336515290  0.6750249367628723  0.5048765486772888
 -0.0016683686337577  0.0004051579897829  0.4989291151870923
  0.4996927693584848  0.1540190948557324  0.2859334018274090
  0.6728191013645910  0.6838574968288226  0.5056999981892305
  0.6597844490503739  0.6711411343431235 -0.0013941673500851
  0.8297848922907900  0.5005729151926164  0.2442324473162951
 
  0.00000000E+00  0.00000000E+00  0.00000000E+00
  0.00000000E+00  0.00000000E+00  0.00000000E+00
  0.00000000E+00  0.00000000E+00  0.00000000E+00
  0.00000000E+00  0.00000000E+00  0.00000000E+00
  0.00000000E+00  0.00000000E+00  0.00000000E+00
  0.00000000E+00  0.00000000E+00  0.00000000E+00
  0.00000000E+00  0.00000000E+00  0.00000000E+00
  0.00000000E+00  0.00000000E+00  0.00000000E+00
  0.00000000E+00  0.00000000E+00  0.00000000E+00
  0.00000000E+00  0.00000000E+00  0.00000000E+00
  0.00000000E+00  0.00000000E+00  0.00000000E+00
  0.00000000E+00  0.00000000E+00  0.00000000E+00
  0.00000000E+00  0.00000000E+00  0.00000000E+00
  0.00000000E+00  0.00000000E+00  0.00000000E+00
  0.00000000E+00  0.00000000E+00  0.00000000E+00
  0.00000000E+00  0.00000000E+00  0.00000000E+00
  0.00000000E+00  0.00000000E+00  0.00000000E+00
  0.00000000E+00  0.00000000E+00  0.00000000E+00
  0.00000000E+00  0.00000000E+00  0.00000000E+00
  0.00000000E+00  0.00000000E+00  0.00000000E+00
  0.00000000E+00  0.00000000E+00  0.00000000E+00
  0.00000000E+00  0.00000000E+00  0.00000000E+00
  0.00000000E+00  0.00000000E+00  0.00000000E+00
  0.00000000E+00  0.00000000E+00  0.00000000E+00
  0.00000000E+00  0.00000000E+00  0.00000000E+00
  0.00000000E+00  0.00000000E+00  0.00000000E+00
  0.00000000E+00  0.00000000E+00  0.00000000E+00
  0.00000000E+00  0.00000000E+00  0.00000000E+00
  0.00000000E+00  0.00000000E+00  0.00000000E+00
  0.00000000E+00  0.00000000E+00  0.00000000E+00
  0.00000000E+00  0.00000000E+00  0.00000000E+00
  0.00000000E+00  0.00000000E+00  0.00000000E+00
  0.00000000E+00  0.00000000E+00  0.00000000E+00
  0.00000000E+00  0.00000000E+00  0.00000000E+00
  0.00000000E+00  0.00000000E+00  0.00000000E+00
  0.00000000E+00  0.00000000E+00  0.00000000E+00
