title                                   
    1.000000000000000     
     9.7882714895799801    0.0653888873176981    0.0930213124279076
     0.0652402135462793    9.7616623556490314    0.0577375398833768
     0.0618551187920016    0.0385666051108720    6.5542148231666051
   Hf   Mo   Nb   W 
    10    19     4     3
Direct
  0.8358149522788857  0.4916837841099728  0.2510390006245929
  0.6654503839093868  0.6702331074088874 -0.0030122221454543
 -0.0037215160501763  0.6680382167320102  0.5043055228636533
  0.3295167357379993  0.3342581877860298  0.4943549821905257
  0.3377565864120314  0.6673817527801051  0.0069738386768479
  0.6645018751655465 -0.0059627268020585  0.0008081576410717
  0.6593317084102861  0.3326711964240728 -0.0109051556067862
  0.3395322683733543  0.0021307255615623  0.0122016957686229
  0.8393107796271522  0.1652638672614662  0.2580509912661847
  0.1665927912280868  0.8401671053844940  0.7505884407470469
  0.6650726321239669 -0.0050147842399661  0.5028525573840092
  0.5004813107913848  0.4996643770445635  0.2567048666485718
  0.0046877595265332  0.3335901211075866 -0.0077016106941863
  0.1638596733891970  0.8386848036246957  0.2561653231925402
  0.3388028767217303  0.0048631918822739  0.4955489997647341
  0.8341008688278738  0.4969764531782374  0.7456193112305705
  0.0005644198375479 -0.0033855580831586  0.4998668309104746
  0.8375603894424772  0.8365073529399401  0.7482262915421821
  0.8355011235767792  0.8345607724650191  0.2563740233297495
  0.1632616654435853  0.4985814889896760  0.7570717747700676
  0.5006945307979200  0.8321236687846535  0.2668710723485018
  0.6579256269477066  0.3308509133502996  0.5032550019692641
  0.1614496724743660  0.1683311377540447  0.2493150875700176
  0.3351886423371297  0.6669280974120424  0.4940106795732994
 -0.0020566886400275  0.6670975065198859 -0.0020017657815328
  0.0023208126654279 -0.0014343531739236  0.0062319524075257
  0.0054632475572552  0.3341617632481910  0.5055657688265516
  0.3337661617216072  0.3321610467476269 -0.0030141747798277
  0.6666451069265239  0.6699273123212814  0.5019520070913470
  0.8408934352728784  0.1644432199213502  0.7421592995700645
  0.4984219053904401  0.5035295305087570  0.7351552811922657
  0.1610827205041202  0.1671007559173098  0.7531839662225382
  0.1597776236402639  0.4973594194543175  0.2415623874313923
  0.5014968648089294  0.1654869223625406  0.2606808643442683
  0.4993823538753548  0.1664745321629330  0.7397417903887893
  0.4995686989464770  0.8345650911532799  0.7301971615205165
 
  0.00000000E+00  0.00000000E+00  0.00000000E+00
  0.00000000E+00  0.00000000E+00  0.00000000E+00
  0.00000000E+00  0.00000000E+00  0.00000000E+00
  0.00000000E+00  0.00000000E+00  0.00000000E+00
  0.00000000E+00  0.00000000E+00  0.00000000E+00
  0.00000000E+00  0.00000000E+00  0.00000000E+00
  0.00000000E+00  0.00000000E+00  0.00000000E+00
  0.00000000E+00  0.00000000E+00  0.00000000E+00
  0.00000000E+00  0.00000000E+00  0.00000000E+00
  0.00000000E+00  0.00000000E+00  0.00000000E+00
  0.00000000E+00  0.00000000E+00  0.00000000E+00
  0.00000000E+00  0.00000000E+00  0.00000000E+00
  0.00000000E+00  0.00000000E+00  0.00000000E+00
  0.00000000E+00  0.00000000E+00  0.00000000E+00
  0.00000000E+00  0.00000000E+00  0.00000000E+00
  0.00000000E+00  0.00000000E+00  0.00000000E+00
  0.00000000E+00  0.00000000E+00  0.00000000E+00
  0.00000000E+00  0.00000000E+00  0.00000000E+00
  0.00000000E+00  0.00000000E+00  0.00000000E+00
  0.00000000E+00  0.00000000E+00  0.00000000E+00
  0.00000000E+00  0.00000000E+00  0.00000000E+00
  0.00000000E+00  0.00000000E+00  0.00000000E+00
  0.00000000E+00  0.00000000E+00  0.00000000E+00
  0.00000000E+00  0.00000000E+00  0.00000000E+00
  0.00000000E+00  0.00000000E+00  0.00000000E+00
  0.00000000E+00  0.00000000E+00  0.00000000E+00
  0.00000000E+00  0.00000000E+00  0.00000000E+00
  0.00000000E+00  0.00000000E+00  0.00000000E+00
  0.00000000E+00  0.00000000E+00  0.00000000E+00
  0.00000000E+00  0.00000000E+00  0.00000000E+00
  0.00000000E+00  0.00000000E+00  0.00000000E+00
  0.00000000E+00  0.00000000E+00  0.00000000E+00
  0.00000000E+00  0.00000000E+00  0.00000000E+00
  0.00000000E+00  0.00000000E+00  0.00000000E+00
  0.00000000E+00  0.00000000E+00  0.00000000E+00
  0.00000000E+00  0.00000000E+00  0.00000000E+00
