title                                   
    1.000000000000000     
     9.7303479579309045   -0.0060766487934899   -0.0282904246752829
    -0.0060373198894949    9.6980538312641666    0.0016409605021978
    -0.0189258852490714    0.0010983874964915    6.4578573944075215
   Ta   Ti   W    Zr
     4    10    19     3
Direct
  0.1656727374684075  0.8307106114650279  0.2508988538645858
  0.1666380530721760  0.1592662410410411  0.2570416309271640
  0.5027861530783558  0.1601210814248202  0.7426942617838707
 -0.0045344683118859  0.3364712089939833  0.5031037439637331
 -0.0018183624956264  0.6645265164622114  0.5051743824280652
  0.8267087960493610  0.1553426500301646  0.7495487708854359
  0.4956734572171987  0.5128374742166922  0.2521066555021276
  0.6855549151335353  0.3402272663665837  0.0094658099795756
  0.3254424899994407 -0.0012216329432981 -0.0147250306441678
  0.5010677947632838  0.8317846586254305  0.7465993555257668
  0.1792272259082278  0.5069882350609340  0.2527768987218433
  0.5027479935133160  0.8305014375407181  0.2522964539523754
  0.3173179589738989  0.3284079250936928 -0.0145963907497935
  0.6855673577551631  0.3391552941989872  0.4900736476087534
  0.8311125223076780  0.8336778496240754  0.2493945670628179
  0.6707477369002376 -0.0031680994729399  0.4990025569190272
 -0.0000051715194724 -0.0042374632364291 -0.0002459600473059
  0.1623634704457004  0.1591110934611103  0.7445201207781789
  0.6711698047501623 -0.0032537420244533 -0.0013645396226141
  0.8300431619146720  0.8366105719345209  0.7528600244841399
  0.6727099515893050  0.6690091473202471  0.0044052013707078
  0.3275827648786865  0.6717483381742476 -0.0034779328835259
  0.1648543925688377  0.8310454625464615  0.7501573955014454
  0.8333036297169256  0.5100400693240685  0.7510610759367898
  0.8339071544241601  0.5097849496196509  0.2518933128383428
  0.3226782868426666  0.3324619419809982  0.5075013785184305
  0.1709878677676487  0.5056390926766118  0.7463637415942788
  0.8340667569915432  0.1558579805924566  0.2540665342955571
 -0.0023259603820280 -0.0052637727199470  0.5038118161759201
  0.3273151387908887 -0.0029067788287012  0.5089251679773736
 -0.0024905656325610  0.6671576853119604 -0.0020259065024979
  0.3277210190029532  0.6695934652965942  0.5029099053169259
  0.6765049154236861  0.6679543780186590  0.4987606879845328
 -0.0010798504148285  0.3346150890698795  0.0003671918588628
  0.4995200484835021  0.1694212734431044  0.2470634147663728
  0.5012608230247841  0.4999825003108360  0.7515912019269044
 
  0.00000000E+00  0.00000000E+00  0.00000000E+00
  0.00000000E+00  0.00000000E+00  0.00000000E+00
  0.00000000E+00  0.00000000E+00  0.00000000E+00
  0.00000000E+00  0.00000000E+00  0.00000000E+00
  0.00000000E+00  0.00000000E+00  0.00000000E+00
  0.00000000E+00  0.00000000E+00  0.00000000E+00
  0.00000000E+00  0.00000000E+00  0.00000000E+00
  0.00000000E+00  0.00000000E+00  0.00000000E+00
  0.00000000E+00  0.00000000E+00  0.00000000E+00
  0.00000000E+00  0.00000000E+00  0.00000000E+00
  0.00000000E+00  0.00000000E+00  0.00000000E+00
  0.00000000E+00  0.00000000E+00  0.00000000E+00
  0.00000000E+00  0.00000000E+00  0.00000000E+00
  0.00000000E+00  0.00000000E+00  0.00000000E+00
  0.00000000E+00  0.00000000E+00  0.00000000E+00
  0.00000000E+00  0.00000000E+00  0.00000000E+00
  0.00000000E+00  0.00000000E+00  0.00000000E+00
  0.00000000E+00  0.00000000E+00  0.00000000E+00
  0.00000000E+00  0.00000000E+00  0.00000000E+00
  0.00000000E+00  0.00000000E+00  0.00000000E+00
  0.00000000E+00  0.00000000E+00  0.00000000E+00
  0.00000000E+00  0.00000000E+00  0.00000000E+00
  0.00000000E+00  0.00000000E+00  0.00000000E+00
  0.00000000E+00  0.00000000E+00  0.00000000E+00
  0.00000000E+00  0.00000000E+00  0.00000000E+00
  0.00000000E+00  0.00000000E+00  0.00000000E+00
  0.00000000E+00  0.00000000E+00  0.00000000E+00
  0.00000000E+00  0.00000000E+00  0.00000000E+00
  0.00000000E+00  0.00000000E+00  0.00000000E+00
  0.00000000E+00  0.00000000E+00  0.00000000E+00
  0.00000000E+00  0.00000000E+00  0.00000000E+00
  0.00000000E+00  0.00000000E+00  0.00000000E+00
  0.00000000E+00  0.00000000E+00  0.00000000E+00
  0.00000000E+00  0.00000000E+00  0.00000000E+00
  0.00000000E+00  0.00000000E+00  0.00000000E+00
  0.00000000E+00  0.00000000E+00  0.00000000E+00
