title                                   
    1.000000000000000     
     9.9114457198369745   -0.0074787052725018   -0.0183374886488687
    -0.0075007798777885    9.9265202169401032    0.0131991665111895
    -0.0123584704475825    0.0087871840165578    6.6608752136801108
   Hf   Nb   Ta   Ti
     3    19     4    10
Direct
  0.8271486952706407  0.1629347528572718  0.2518969623877171
  0.6626645240516238  0.6678194302721315  0.4958953791942262
  0.3438793324108959 -0.0009716084277691  0.4982303641751950
  0.1617006806240751  0.8322555819748246  0.2509533155072941
  0.8373312046407222  0.1686155325588126  0.7377601733481235
  0.1654068064735109  0.1662523631306897  0.7516843695363576
  0.3356728216998039  0.0004334803651621  0.0054272607830530
  0.1686853859732219  0.5006509070852800  0.7471305620098184
  0.0043287588651967  0.0027282740368198 -0.0037573699482596
  0.4987159811249271  0.1752129233103681  0.7601454387531245
  0.6718925236038014  0.6700505625974209  0.0080895072987911
  0.1714963679535636  0.4988515902400977  0.2573697065162251
  0.3239023883240738  0.3303344382635583  0.0003683205257057
  0.0017393041371617  0.3376542599143119  0.5017810258772226
  0.6722437338494915  0.3315938438285941 -0.0242987358729039
  0.3385645477612660  0.3278967276510383  0.5015619254195791
  0.1650699785470044  0.1679545629126286  0.2503546091804296
  0.3338714428451374  0.6675069373937034  0.4992175893795474
  0.3256129319719342  0.6636818402962154  0.0096305477773927
  0.8300633836354664  0.4984317083191647  0.2449913417425621
  0.5049264544224420  0.8337312458282112  0.2285902537899874
  0.0069181215870688 -0.0012503435815056  0.5023946211945017
 -0.0020236784470399  0.6670879094762664  0.4972379828455805
  0.0004192485518650  0.6609940508520485  0.0071508437757730
  0.1671549614640478  0.8307705219299680  0.7550197741480458
  0.8421086588183897  0.8319487152614101  0.7552087432220865
  0.5085035523959106  0.1766115476923579  0.2347153538605237
  0.8357282160898122  0.8448025784508367  0.2436567236642270
  0.6586236826780034  0.3406958745010644  0.5157064308083632
  0.4883045469039858  0.8151562416041813  0.7755264584471513
  0.8347375957273889  0.5037093570931058  0.7553689915488487
  0.6614846072673755 -0.0010888510890510 -0.0332985591309307
  0.4940515687778590  0.5032436014805555  0.7698199684943223
  0.0036185813189272  0.3401262493711100 -0.0013916503556941
  0.4982449648956916  0.4894869980614640  0.2311912221772891
  0.6572081237847530 -0.0059138055123459  0.5186705479187208
 
  0.00000000E+00  0.00000000E+00  0.00000000E+00
  0.00000000E+00  0.00000000E+00  0.00000000E+00
  0.00000000E+00  0.00000000E+00  0.00000000E+00
  0.00000000E+00  0.00000000E+00  0.00000000E+00
  0.00000000E+00  0.00000000E+00  0.00000000E+00
  0.00000000E+00  0.00000000E+00  0.00000000E+00
  0.00000000E+00  0.00000000E+00  0.00000000E+00
  0.00000000E+00  0.00000000E+00  0.00000000E+00
  0.00000000E+00  0.00000000E+00  0.00000000E+00
  0.00000000E+00  0.00000000E+00  0.00000000E+00
  0.00000000E+00  0.00000000E+00  0.00000000E+00
  0.00000000E+00  0.00000000E+00  0.00000000E+00
  0.00000000E+00  0.00000000E+00  0.00000000E+00
  0.00000000E+00  0.00000000E+00  0.00000000E+00
  0.00000000E+00  0.00000000E+00  0.00000000E+00
  0.00000000E+00  0.00000000E+00  0.00000000E+00
  0.00000000E+00  0.00000000E+00  0.00000000E+00
  0.00000000E+00  0.00000000E+00  0.00000000E+00
  0.00000000E+00  0.00000000E+00  0.00000000E+00
  0.00000000E+00  0.00000000E+00  0.00000000E+00
  0.00000000E+00  0.00000000E+00  0.00000000E+00
  0.00000000E+00  0.00000000E+00  0.00000000E+00
  0.00000000E+00  0.00000000E+00  0.00000000E+00
  0.00000000E+00  0.00000000E+00  0.00000000E+00
  0.00000000E+00  0.00000000E+00  0.00000000E+00
  0.00000000E+00  0.00000000E+00  0.00000000E+00
  0.00000000E+00  0.00000000E+00  0.00000000E+00
  0.00000000E+00  0.00000000E+00  0.00000000E+00
  0.00000000E+00  0.00000000E+00  0.00000000E+00
  0.00000000E+00  0.00000000E+00  0.00000000E+00
  0.00000000E+00  0.00000000E+00  0.00000000E+00
  0.00000000E+00  0.00000000E+00  0.00000000E+00
  0.00000000E+00  0.00000000E+00  0.00000000E+00
  0.00000000E+00  0.00000000E+00  0.00000000E+00
  0.00000000E+00  0.00000000E+00  0.00000000E+00
  0.00000000E+00  0.00000000E+00  0.00000000E+00
