title                                   
    1.000000000000000     
     9.9160913995028714    0.0323325546752530    0.0568268121722905
     0.0325223050724515    9.9158274975486460   -0.0335759430817003
     0.0380159641914853   -0.0223345217203753    6.6893510663408540
   Hf   V    W 
    18    10     8
Direct
  0.6606946780862366  0.3426471394367060  0.4991449816969041
 -0.0341651624209366  0.6845190923939560  0.4852961339621119
  0.8400474210584968  0.4866519950641583  0.7604322803017975
  0.5004777684505020  0.1584275498607413  0.2271134060881281
  0.8412446273152174  0.1640823457341699  0.7595044519903238
 -0.0240156581627431  0.6811231745642244  0.0147416269779466
  0.4945993645827404  0.5045116277145384  0.2417540632355818
  0.3326918477847933  0.3216759892776526  0.5042346844550790
  0.1644774659235466  0.1570225510667857  0.7657553633900690
  0.1612334228859936  0.4998093337172191  0.7444363137220563
  0.3492572387217928  0.6735176242461861 -0.0276879973410895
  0.1741534079249917  0.8455672905112188  0.2628246988847391
  0.8389298849971389  0.1646083452318324  0.2412318612795234
  0.1651789082784193  0.5018162496468755  0.2511162155931742
  0.6617376823701636  0.6718375852588659  0.5008478221909274
  0.5036731265339871  0.1582441819719891  0.7758598988448122
  0.1666638753475373  0.8427505480431096  0.7380146172592396
  0.6637770571250701 -0.0188646591159423  0.4994871027429427
  0.1552152927916392  0.1715745214533209  0.2432222256905855
  0.4942009008264855  0.8364544903953028  0.2362597863688057
  0.3608153845926430  0.6812859700038939  0.5255822514379066
  0.6767094483911860 -0.0284808705195662  0.0016737301681426
  0.8310982873895776  0.8535677770428645  0.7727397542834895
 -0.0153389522330653 -0.0192346657541465  0.0049041589497348
  0.3618917504220278 -0.0158001238900288  0.5020126767881450
  0.4939569722716242  0.8394609669539298  0.7560925563053966
  0.8283985256949614  0.4825908104868405  0.2241330710328815
  0.8291730651182269  0.8602590307781648  0.2283284866039959
  0.0046829043678335  0.3335746048312515  0.0156237981364344
 -0.0098828946657589 -0.0025223859246457  0.4956146209859026
  0.0150756680939356  0.3229835272288614  0.4878099525608554
  0.5048511749021537  0.4989357659558568  0.7604254556181870
  0.6628598017525650  0.6770567094518226 -0.0024974140703842
  0.3431017311276418 -0.0154163334069034  0.0030894210482560
  0.6699518140572959  0.3448384818305412  0.0056142370892493
  0.3325821682960816  0.3389237584583519 -0.0047362942718502
 
  0.00000000E+00  0.00000000E+00  0.00000000E+00
  0.00000000E+00  0.00000000E+00  0.00000000E+00
  0.00000000E+00  0.00000000E+00  0.00000000E+00
  0.00000000E+00  0.00000000E+00  0.00000000E+00
  0.00000000E+00  0.00000000E+00  0.00000000E+00
  0.00000000E+00  0.00000000E+00  0.00000000E+00
  0.00000000E+00  0.00000000E+00  0.00000000E+00
  0.00000000E+00  0.00000000E+00  0.00000000E+00
  0.00000000E+00  0.00000000E+00  0.00000000E+00
  0.00000000E+00  0.00000000E+00  0.00000000E+00
  0.00000000E+00  0.00000000E+00  0.00000000E+00
  0.00000000E+00  0.00000000E+00  0.00000000E+00
  0.00000000E+00  0.00000000E+00  0.00000000E+00
  0.00000000E+00  0.00000000E+00  0.00000000E+00
  0.00000000E+00  0.00000000E+00  0.00000000E+00
  0.00000000E+00  0.00000000E+00  0.00000000E+00
  0.00000000E+00  0.00000000E+00  0.00000000E+00
  0.00000000E+00  0.00000000E+00  0.00000000E+00
  0.00000000E+00  0.00000000E+00  0.00000000E+00
  0.00000000E+00  0.00000000E+00  0.00000000E+00
  0.00000000E+00  0.00000000E+00  0.00000000E+00
  0.00000000E+00  0.00000000E+00  0.00000000E+00
  0.00000000E+00  0.00000000E+00  0.00000000E+00
  0.00000000E+00  0.00000000E+00  0.00000000E+00
  0.00000000E+00  0.00000000E+00  0.00000000E+00
  0.00000000E+00  0.00000000E+00  0.00000000E+00
  0.00000000E+00  0.00000000E+00  0.00000000E+00
  0.00000000E+00  0.00000000E+00  0.00000000E+00
  0.00000000E+00  0.00000000E+00  0.00000000E+00
  0.00000000E+00  0.00000000E+00  0.00000000E+00
  0.00000000E+00  0.00000000E+00  0.00000000E+00
  0.00000000E+00  0.00000000E+00  0.00000000E+00
  0.00000000E+00  0.00000000E+00  0.00000000E+00
  0.00000000E+00  0.00000000E+00  0.00000000E+00
  0.00000000E+00  0.00000000E+00  0.00000000E+00
  0.00000000E+00  0.00000000E+00  0.00000000E+00
