title                                   
    1.000000000000000     
     9.9095715601558236    0.0289841331650252   -0.0322538819869450
     0.0290032887688397    9.8796253099869773   -0.0175797525221657
    -0.0216192656467479   -0.0116435221841719    6.6378352519854431
   Hf   Nb   Ta   V 
     9     9     9     9
Direct
  0.6662748695589548 -0.0154120819794238  0.5116658120710150
  0.6863148833114359 -0.0173896091470074 -0.0085633548837716
  0.6639625374065378  0.3548011191537488 -0.0140928117995947
  0.6690107830564777  0.6630940818589233  0.0026947755864978
  0.4976567038916014  0.1700534506357713  0.2459697192457274
  0.1646643410948117  0.5037263362880209  0.7272322457850655
  0.8322452718313840  0.1733024991033890  0.2699924137173811
 -0.0152884799805115  0.6667697817765667  0.0011568348413874
 -0.0020868279807388  0.3394513056496142 -0.0025279742998821
  0.1690678180314073  0.1665363135349070  0.7448060062053617
  0.8326510381198186  0.5020227247419329  0.2858344950455631
  0.6675534429749308  0.6679602888246658  0.5123480686168312
  0.4910728540647287  0.8302188355850599  0.2454432350859080
  0.3358414620569170  0.6611605188775792  0.0074816075958285
  0.0036480096385644 -0.0048080829953048  0.4990171698620306
  0.1705690608958356  0.1636981302309186  0.2495943752127250
  0.6577927505656498  0.3439142126236333  0.5188398240430074
  0.1731835104446570  0.4990713144802301  0.2641502848388785
  0.3329023320039675  0.3390052305055457  0.0000128712052726
 -0.0013427699547621 -0.0028022856863099 -0.0054302452825525
  0.4815256020836476  0.8325212380377363  0.7632425591051023
  0.3415735199472124  0.6638306442001826  0.4917442220365285
  0.4901981412507090  0.1680009728923089  0.7550863816730780
  0.8409479188630001  0.1723749435918328  0.7281344677490590
  0.3319233375278948 -0.0011091099742261  0.5010048012417938
  0.1673973167939694  0.8313331801850607  0.7498546851282777
  0.1654445729834776  0.8353072262780183  0.2453369061515514
  0.3401773765785197  0.3394238484142821  0.4992782987482106
  0.0001852896113305  0.3351547291932179  0.5056695262450502
  0.4924044903756099  0.4920353386974909  0.2717987263693053
  0.8591480463912098  0.8266769625030830  0.7146819039562261
  0.4830569510305606  0.4977157106722759  0.7332025331788476
  0.8466103929965870  0.5021316616943672  0.7114982915577452
  0.8526581230355231  0.8245233678314449  0.2839056523289470
  0.3181363817888082  0.0023765216350823 -0.0046346966064289
 -0.0070810522897263  0.6733286800853819  0.4945703884440275
 
  0.00000000E+00  0.00000000E+00  0.00000000E+00
  0.00000000E+00  0.00000000E+00  0.00000000E+00
  0.00000000E+00  0.00000000E+00  0.00000000E+00
  0.00000000E+00  0.00000000E+00  0.00000000E+00
  0.00000000E+00  0.00000000E+00  0.00000000E+00
  0.00000000E+00  0.00000000E+00  0.00000000E+00
  0.00000000E+00  0.00000000E+00  0.00000000E+00
  0.00000000E+00  0.00000000E+00  0.00000000E+00
  0.00000000E+00  0.00000000E+00  0.00000000E+00
  0.00000000E+00  0.00000000E+00  0.00000000E+00
  0.00000000E+00  0.00000000E+00  0.00000000E+00
  0.00000000E+00  0.00000000E+00  0.00000000E+00
  0.00000000E+00  0.00000000E+00  0.00000000E+00
  0.00000000E+00  0.00000000E+00  0.00000000E+00
  0.00000000E+00  0.00000000E+00  0.00000000E+00
  0.00000000E+00  0.00000000E+00  0.00000000E+00
  0.00000000E+00  0.00000000E+00  0.00000000E+00
  0.00000000E+00  0.00000000E+00  0.00000000E+00
  0.00000000E+00  0.00000000E+00  0.00000000E+00
  0.00000000E+00  0.00000000E+00  0.00000000E+00
  0.00000000E+00  0.00000000E+00  0.00000000E+00
  0.00000000E+00  0.00000000E+00  0.00000000E+00
  0.00000000E+00  0.00000000E+00  0.00000000E+00
  0.00000000E+00  0.00000000E+00  0.00000000E+00
  0.00000000E+00  0.00000000E+00  0.00000000E+00
  0.00000000E+00  0.00000000E+00  0.00000000E+00
  0.00000000E+00  0.00000000E+00  0.00000000E+00
  0.00000000E+00  0.00000000E+00  0.00000000E+00
  0.00000000E+00  0.00000000E+00  0.00000000E+00
  0.00000000E+00  0.00000000E+00  0.00000000E+00
  0.00000000E+00  0.00000000E+00  0.00000000E+00
  0.00000000E+00  0.00000000E+00  0.00000000E+00
  0.00000000E+00  0.00000000E+00  0.00000000E+00
  0.00000000E+00  0.00000000E+00  0.00000000E+00
  0.00000000E+00  0.00000000E+00  0.00000000E+00
  0.00000000E+00  0.00000000E+00  0.00000000E+00
