title                                   
    1.000000000000000     
     9.3428209325790590    0.0164942239678326   -0.0002509841688319
     0.0164925032813129    9.3335073759980531   -0.0014495914367927
    -0.0001668208462313   -0.0009627761286615    6.2221867140903209
   Cr   Mo   Ta   Ti   W 
    12     2     6     1    15
Direct
  0.8318487397005364  0.8302152029581588  0.2494085196276389
  0.1674248085353872  0.1687054304772042  0.2529528688774331
  0.1704286206907919  0.4984493674197490  0.7499230648324215
  0.3334728240949663  0.3351268087123341 -0.0053894641930730
  0.6657529027120139  0.6660716995555805  0.0016485771722758
  0.8340970884646900  0.5049589317441042  0.2494361523592841
  0.5000202182995530  0.8299822832730435  0.2479922886066767
  0.3372571574652700  0.6640274254601461  0.5014343861484143
  0.4963334324286290  0.5038954942229542  0.7499895959025306
  0.4939828552687478  0.1676663486434947  0.7507974517530809
  0.0016450563350045  0.3323477353002857  0.5043831192457564
  0.8376242592209120  0.1662929030886803  0.7477350900156735
  0.0001570677859023  0.0008880904686402  0.0020222574287275
  0.4985625671868492  0.5041962275065156  0.2456873480579812
  0.4937087579236893  0.1705513942517074  0.2467822194195216
  0.1702758890194244  0.4967151227068844  0.2564715427439238
  0.0004311291437644  0.3349936533206868 -0.0032051285519778
  0.8372182371237973  0.1684315534174011  0.2557434638401263
  0.6650785877164939  0.3370885324655951  0.5092317919847864
  0.6655233897741250 -0.0021692439859243 -0.0016075678000439
  0.6646419902692207  0.3386981396090992 -0.0079140543478479
  0.0004390034606676  0.0006562111244482  0.5003069631991561
  0.3337246313374376  0.0002443811413211  0.4990047882560513
  0.8321068627664953  0.8308057102799405  0.7503986475697957
 -0.0025842013574811  0.6635721516379679  0.4992585073238457
  0.3336057914248329 -0.0001229283847293 -0.0001077126631369
  0.1691223080297527  0.8304573615976921  0.2516365816664733
  0.8326763868186304  0.5033547628333870  0.7492135423683725
  0.3343629026629260  0.3361482178628238  0.5137332232840762
  0.6659508757497401 -0.0016634942171650  0.5006211446889292
 -0.0033305795282463  0.6644900748305113  0.0039123494342903
  0.6660113606350676  0.6664230183648603  0.4896685232677196
  0.1675977502244844  0.1695968084745907  0.7496721399231097
  0.1683294560018649  0.8298212785813991  0.7476671569323836
  0.4994857759486081  0.8266222802066763  0.7463812186317150
  0.3370160966654538  0.6624610650499336 -0.0048905970060920
 
  0.00000000E+00  0.00000000E+00  0.00000000E+00
  0.00000000E+00  0.00000000E+00  0.00000000E+00
  0.00000000E+00  0.00000000E+00  0.00000000E+00
  0.00000000E+00  0.00000000E+00  0.00000000E+00
  0.00000000E+00  0.00000000E+00  0.00000000E+00
  0.00000000E+00  0.00000000E+00  0.00000000E+00
  0.00000000E+00  0.00000000E+00  0.00000000E+00
  0.00000000E+00  0.00000000E+00  0.00000000E+00
  0.00000000E+00  0.00000000E+00  0.00000000E+00
  0.00000000E+00  0.00000000E+00  0.00000000E+00
  0.00000000E+00  0.00000000E+00  0.00000000E+00
  0.00000000E+00  0.00000000E+00  0.00000000E+00
  0.00000000E+00  0.00000000E+00  0.00000000E+00
  0.00000000E+00  0.00000000E+00  0.00000000E+00
  0.00000000E+00  0.00000000E+00  0.00000000E+00
  0.00000000E+00  0.00000000E+00  0.00000000E+00
  0.00000000E+00  0.00000000E+00  0.00000000E+00
  0.00000000E+00  0.00000000E+00  0.00000000E+00
  0.00000000E+00  0.00000000E+00  0.00000000E+00
  0.00000000E+00  0.00000000E+00  0.00000000E+00
  0.00000000E+00  0.00000000E+00  0.00000000E+00
  0.00000000E+00  0.00000000E+00  0.00000000E+00
  0.00000000E+00  0.00000000E+00  0.00000000E+00
  0.00000000E+00  0.00000000E+00  0.00000000E+00
  0.00000000E+00  0.00000000E+00  0.00000000E+00
  0.00000000E+00  0.00000000E+00  0.00000000E+00
  0.00000000E+00  0.00000000E+00  0.00000000E+00
  0.00000000E+00  0.00000000E+00  0.00000000E+00
  0.00000000E+00  0.00000000E+00  0.00000000E+00
  0.00000000E+00  0.00000000E+00  0.00000000E+00
  0.00000000E+00  0.00000000E+00  0.00000000E+00
  0.00000000E+00  0.00000000E+00  0.00000000E+00
  0.00000000E+00  0.00000000E+00  0.00000000E+00
  0.00000000E+00  0.00000000E+00  0.00000000E+00
  0.00000000E+00  0.00000000E+00  0.00000000E+00
  0.00000000E+00  0.00000000E+00  0.00000000E+00
