title                                   
    1.000000000000000     
    10.0461751097599343    0.0049757158660702    0.0056366806121482
     0.0046620035471312   10.1332194535759861   -0.0060051109576517
     0.0038639562339336   -0.0040693782610333    6.8179800620011886
   Nb   Ta   Ti   V    Zr
    12     1     2     6    15
Direct
  0.1657682519976677  0.4912500564723650  0.7614129843201780
  0.6446832859504941  0.3119007407442690  0.5151126619650667
 -0.0014119424751714  0.0079095695364861  0.4760548153672540
  0.3146253687852637  0.6553801422136336  0.0020626429516677
  0.3405523986992354  0.0134843308150908  0.4683136144806758
  0.8297460352848551  0.1744654155428826  0.7439580451694787
  0.1718620742855223  0.8415721857004186  0.2573856537747071
  0.3288078058648217  0.3252147720393508  0.4825691828678159
  0.0060953184055695  0.6663959420525839  0.4943240131747972
  0.4924571944421547  0.1631739111814287  0.7576922087094635
  0.6841936732107827  0.6812772216185012  0.0199127986354823
  0.0090991002734731  0.3318525236002697 -0.0146942340324178
  0.6627323276311534  0.0045897118478920  0.4937601988132940
  0.0195690268668238  0.3372769102351985  0.5086664527844375
  0.1704242049340620  0.4795171529160862  0.2295751649053490
  0.4918229784488130  0.1683270786516950  0.2411025665620316
  0.3363700129342570  0.3087552841941487  0.0161012514176071
  0.3325708490580037  0.0299395923752939  0.0317546755882759
  0.1820417609145440  0.1784701778240288  0.2424942280167330
  0.6495716628581923  0.3017862681910192 -0.0148446397094295
  0.8426036274561114  0.8424364684873382  0.2839305785215944
  0.0033864558171566  0.0069230641160471  0.0294379331329318
  0.8254031668011057  0.4930639698864134  0.7539314987954955
  0.1736281940649387  0.1604407079766909  0.7490674942545268
  0.4967295781833393  0.4863800440050422  0.7648902820568921
  0.3176523284999118  0.6506182478179454  0.4939261604841922
  0.1746810987621734  0.8444533552376627  0.7485992623887610
  0.8328488045861266  0.4900765314334075  0.2506743509210180
  0.8443972104720041  0.8414516086896373  0.7332210147678097
  0.4894824299325252  0.8368175362230952  0.2294212214773025
  0.0033463226970393  0.6724071575173133  0.0158356511495340
  0.4912718708912576  0.8374669793350358  0.7597833307653538
  0.6714940680453401  0.6823862286945471  0.4812041970092740
  0.8263158201559883  0.1902288071495469  0.2571108534320281
  0.6725730432377112  0.0073904019461313  0.0081228710909629
  0.5026045920267525  0.4849199037315033  0.2281290139898572
 
  0.00000000E+00  0.00000000E+00  0.00000000E+00
  0.00000000E+00  0.00000000E+00  0.00000000E+00
  0.00000000E+00  0.00000000E+00  0.00000000E+00
  0.00000000E+00  0.00000000E+00  0.00000000E+00
  0.00000000E+00  0.00000000E+00  0.00000000E+00
  0.00000000E+00  0.00000000E+00  0.00000000E+00
  0.00000000E+00  0.00000000E+00  0.00000000E+00
  0.00000000E+00  0.00000000E+00  0.00000000E+00
  0.00000000E+00  0.00000000E+00  0.00000000E+00
  0.00000000E+00  0.00000000E+00  0.00000000E+00
  0.00000000E+00  0.00000000E+00  0.00000000E+00
  0.00000000E+00  0.00000000E+00  0.00000000E+00
  0.00000000E+00  0.00000000E+00  0.00000000E+00
  0.00000000E+00  0.00000000E+00  0.00000000E+00
  0.00000000E+00  0.00000000E+00  0.00000000E+00
  0.00000000E+00  0.00000000E+00  0.00000000E+00
  0.00000000E+00  0.00000000E+00  0.00000000E+00
  0.00000000E+00  0.00000000E+00  0.00000000E+00
  0.00000000E+00  0.00000000E+00  0.00000000E+00
  0.00000000E+00  0.00000000E+00  0.00000000E+00
  0.00000000E+00  0.00000000E+00  0.00000000E+00
  0.00000000E+00  0.00000000E+00  0.00000000E+00
  0.00000000E+00  0.00000000E+00  0.00000000E+00
  0.00000000E+00  0.00000000E+00  0.00000000E+00
  0.00000000E+00  0.00000000E+00  0.00000000E+00
  0.00000000E+00  0.00000000E+00  0.00000000E+00
  0.00000000E+00  0.00000000E+00  0.00000000E+00
  0.00000000E+00  0.00000000E+00  0.00000000E+00
  0.00000000E+00  0.00000000E+00  0.00000000E+00
  0.00000000E+00  0.00000000E+00  0.00000000E+00
  0.00000000E+00  0.00000000E+00  0.00000000E+00
  0.00000000E+00  0.00000000E+00  0.00000000E+00
  0.00000000E+00  0.00000000E+00  0.00000000E+00
  0.00000000E+00  0.00000000E+00  0.00000000E+00
  0.00000000E+00  0.00000000E+00  0.00000000E+00
  0.00000000E+00  0.00000000E+00  0.00000000E+00
