title                                   
    1.000000000000000     
     9.8321077944121722    0.0222834147528237    0.0295121813333245
     0.0218930132097592    9.9696862153769708   -0.0350581535721838
     0.0196727982473312   -0.0235783732252626    6.5873337478814662
   Hf   Mo   Nb   Zr
    10    19     4     3
Direct
 -0.0003632987920561 -0.0011784821086718  0.4959538356754598
  0.1771187312922600  0.1738852995277055  0.2682645224303520
  0.1634555427929251  0.5110856507611379  0.7390841698657039
  0.1659860570387789  0.5061268205902879  0.2618542266196088
 -0.0034709276132738  0.3252062222271620 -0.0032711243206390
  0.5007000135818203  0.1614630550294489  0.2634591684181423
  0.8354173397643760  0.5121729933205319  0.7502939648357360
  0.8284692111822743  0.8253855188496982  0.7545255124787318
  0.1640258864017182  0.8217387553059412  0.7521982126257141
  0.6722768454106177  0.3476019805471584  0.4913301135114569
  0.6607426027943305  0.6682228918569009  0.0081476968166026
  0.6708279911371676 -0.0085334111296599  0.4958175631073818
  0.5001525363666914  0.8273806110014683  0.7425422352587978
  0.3427670897474989  0.3436403744066294  0.5129468920852881
  0.3287902914521039 -0.0088041691010920  0.5063235729128153
  0.5020104571848228  0.8286744548342214  0.2547848934856027
 -0.0054773124360945  0.6753404127613759  0.4840889902289271
 -0.0078214312121786  0.3243753227791865  0.5024004899888846
  0.6735605127319150  0.3401388594318871  0.0029256429323109
  0.6597008871259004  0.6673228879679044  0.4903255358256575
 -0.0061974031380540  0.6681468345427093  0.0148068357899500
  0.3418056490560479  0.6696349986583360  0.0035678439331952
  0.5014893791506445  0.5107992739130254  0.7437721418233714
  0.3427859585070929  0.6722192956980528  0.4967331709591581
  0.1667124303120851  0.1611863456969144  0.7418336815480766
 -0.0018884987536231  0.0026574269009562  0.0062248494667790
  0.1654109630157932  0.8261055975493032  0.2524222679065958
  0.8345961427419547  0.5108894903074688  0.2433477564543670
  0.8290805637746241  0.8299708601251151  0.2456943804896395
  0.8297706227671232  0.1621816119374820  0.2468291323148581
  0.5012874293958771  0.5118364583492900  0.2446155692533211
  0.6638534419526946 -0.0120841627000985  0.0066036229986805
  0.8273401229237458  0.1602712111139568  0.7537902609509041
  0.3383003537933351  0.3379042585126713 -0.0188105036992864
  0.5055148285281034  0.1596437438382043  0.7421717551433251
  0.3312689900209593 -0.0126092933026083  0.0024011198845293
 
  0.00000000E+00  0.00000000E+00  0.00000000E+00
  0.00000000E+00  0.00000000E+00  0.00000000E+00
  0.00000000E+00  0.00000000E+00  0.00000000E+00
  0.00000000E+00  0.00000000E+00  0.00000000E+00
  0.00000000E+00  0.00000000E+00  0.00000000E+00
  0.00000000E+00  0.00000000E+00  0.00000000E+00
  0.00000000E+00  0.00000000E+00  0.00000000E+00
  0.00000000E+00  0.00000000E+00  0.00000000E+00
  0.00000000E+00  0.00000000E+00  0.00000000E+00
  0.00000000E+00  0.00000000E+00  0.00000000E+00
  0.00000000E+00  0.00000000E+00  0.00000000E+00
  0.00000000E+00  0.00000000E+00  0.00000000E+00
  0.00000000E+00  0.00000000E+00  0.00000000E+00
  0.00000000E+00  0.00000000E+00  0.00000000E+00
  0.00000000E+00  0.00000000E+00  0.00000000E+00
  0.00000000E+00  0.00000000E+00  0.00000000E+00
  0.00000000E+00  0.00000000E+00  0.00000000E+00
  0.00000000E+00  0.00000000E+00  0.00000000E+00
  0.00000000E+00  0.00000000E+00  0.00000000E+00
  0.00000000E+00  0.00000000E+00  0.00000000E+00
  0.00000000E+00  0.00000000E+00  0.00000000E+00
  0.00000000E+00  0.00000000E+00  0.00000000E+00
  0.00000000E+00  0.00000000E+00  0.00000000E+00
  0.00000000E+00  0.00000000E+00  0.00000000E+00
  0.00000000E+00  0.00000000E+00  0.00000000E+00
  0.00000000E+00  0.00000000E+00  0.00000000E+00
  0.00000000E+00  0.00000000E+00  0.00000000E+00
  0.00000000E+00  0.00000000E+00  0.00000000E+00
  0.00000000E+00  0.00000000E+00  0.00000000E+00
  0.00000000E+00  0.00000000E+00  0.00000000E+00
  0.00000000E+00  0.00000000E+00  0.00000000E+00
  0.00000000E+00  0.00000000E+00  0.00000000E+00
  0.00000000E+00  0.00000000E+00  0.00000000E+00
  0.00000000E+00  0.00000000E+00  0.00000000E+00
  0.00000000E+00  0.00000000E+00  0.00000000E+00
  0.00000000E+00  0.00000000E+00  0.00000000E+00
