title                                   
    1.000000000000000     
     9.6165487953917665    0.0159264271343547    0.0007618799306900
     0.0154728471711093    9.6277423519397214    0.0426449453001196
     0.0001072990179366    0.0286248289101059    6.4424571923071223
   Cr   Hf   Mo   Ta   Ti
     3     3    11     4    15
Direct
  0.3320354588854556 -0.0035241098149339  0.4983359521625695
  0.1782970148783682  0.8348240486475940  0.2545180319096904
  0.1839458645265011  0.1655661722258184  0.7369362282080263
  0.0024069538717090  0.6730287230231742  0.5048480789956555
  0.0008337342249051 -0.0026385422228514  0.5099847160658708
  0.0078720100226121 -0.0001114689799886  0.0042133778655528
  0.6643058936567745  0.6694153235376433  0.4975758058009664
 -0.0026921991869083  0.6676608204061816  0.0001444354439590
  0.6630718527876901  0.3320940768491877  0.4969534367714590
  0.8312391568168701  0.4982773709840881  0.7499204302558721
  0.4985033548145975  0.1677356982873473  0.2563027305717613
  0.8219387552719687  0.1705829350904689  0.7411513858262954
  0.3359570297511057  0.6784814043033226  0.0086236447005278
  0.4992177186123876  0.8311877058481227  0.2469715310484677
  0.1798858097178394  0.8338911703834772  0.7612449912569644
  0.8225687330901569  0.8286792667993450  0.7512866274241268
  0.5006379246423017  0.5035590732659162  0.7376581988683830
  0.6620127850046456  0.3338994246488527 -0.0137812143844792
  0.0008659000978021  0.3233143430424740 -0.0070589089188778
  0.3285884675943366  0.6750332200125850  0.4972113289609366
  0.1687454828608381  0.5042151479612821  0.7840144285490237
  0.1882350802488508  0.1621076048555165  0.2881619344591515
  0.3325445146362379  0.3384559440398772  0.5230109184791533
  0.6668294899150879 -0.0011146038392174  0.4813383510651409
  0.8286779202866315  0.4964427119451363  0.2491532959861948
  0.3308397735798250  0.0012200807924202  0.0082276523119368
  0.1682983422200871  0.5044244669459125  0.2355260155994405
  0.4910745250081282  0.1521980007506079  0.7278918642483319
  0.0006590093694828  0.3297589828433327  0.5297745254907439
  0.4912459410823181  0.8482529500321627  0.7325848159857277
  0.6629498118900464  0.6612677874905674 -0.0235262317203615
  0.3380405973541405  0.3190489226023162 -0.0048652505239881
  0.8262346396888234  0.1883648519485546  0.2573171806686069
  0.5024415565494766  0.5028813578897003  0.2500581969504553
  0.8239860250555936  0.8119488445674687  0.2345439506406150
  0.6677050711733148 -0.0004297071634641 -0.0062524570238999
 
  0.00000000E+00  0.00000000E+00  0.00000000E+00
  0.00000000E+00  0.00000000E+00  0.00000000E+00
  0.00000000E+00  0.00000000E+00  0.00000000E+00
  0.00000000E+00  0.00000000E+00  0.00000000E+00
  0.00000000E+00  0.00000000E+00  0.00000000E+00
  0.00000000E+00  0.00000000E+00  0.00000000E+00
  0.00000000E+00  0.00000000E+00  0.00000000E+00
  0.00000000E+00  0.00000000E+00  0.00000000E+00
  0.00000000E+00  0.00000000E+00  0.00000000E+00
  0.00000000E+00  0.00000000E+00  0.00000000E+00
  0.00000000E+00  0.00000000E+00  0.00000000E+00
  0.00000000E+00  0.00000000E+00  0.00000000E+00
  0.00000000E+00  0.00000000E+00  0.00000000E+00
  0.00000000E+00  0.00000000E+00  0.00000000E+00
  0.00000000E+00  0.00000000E+00  0.00000000E+00
  0.00000000E+00  0.00000000E+00  0.00000000E+00
  0.00000000E+00  0.00000000E+00  0.00000000E+00
  0.00000000E+00  0.00000000E+00  0.00000000E+00
  0.00000000E+00  0.00000000E+00  0.00000000E+00
  0.00000000E+00  0.00000000E+00  0.00000000E+00
  0.00000000E+00  0.00000000E+00  0.00000000E+00
  0.00000000E+00  0.00000000E+00  0.00000000E+00
  0.00000000E+00  0.00000000E+00  0.00000000E+00
  0.00000000E+00  0.00000000E+00  0.00000000E+00
  0.00000000E+00  0.00000000E+00  0.00000000E+00
  0.00000000E+00  0.00000000E+00  0.00000000E+00
  0.00000000E+00  0.00000000E+00  0.00000000E+00
  0.00000000E+00  0.00000000E+00  0.00000000E+00
  0.00000000E+00  0.00000000E+00  0.00000000E+00
  0.00000000E+00  0.00000000E+00  0.00000000E+00
  0.00000000E+00  0.00000000E+00  0.00000000E+00
  0.00000000E+00  0.00000000E+00  0.00000000E+00
  0.00000000E+00  0.00000000E+00  0.00000000E+00
  0.00000000E+00  0.00000000E+00  0.00000000E+00
  0.00000000E+00  0.00000000E+00  0.00000000E+00
  0.00000000E+00  0.00000000E+00  0.00000000E+00
