title                                   
    1.000000000000000     
     9.7381654243936175    0.0168344048678620   -0.0071840637828713
     0.0167682917038682    9.7883103899366262    0.0034822544200597
    -0.0047963444033218    0.0023307939816688    6.4835299812864378
   Mo   Nb   Ta   W    Zr
     2     6    12    15     1
Direct
  0.3355091113865178  0.3356907456077856  0.5021443379483743
  0.3340257559265574  0.6619301007844266  0.5015985699924048
  0.0019844226652479  0.0023807774871521  0.0000117811347237
  0.4995661114871524  0.8276154039169934  0.2440742447364666
  0.1647572776945931  0.1699726104215661  0.2540835160856501
  0.8348704198023110  0.8318935369336148  0.2461373124764512
  0.1695541778003934  0.5042677187655596  0.2551651803839841
  0.0003669971675529  0.3359253237611731  0.5032158076026162
  0.8301378880634122  0.1665817991876277  0.7501139764824698
  0.6670994121297708  0.6604031457762967  0.4978862020568195
  0.1627537994854175  0.8262405707063826  0.2500085801997297
  0.6638035951104112 -0.0007401747206234  0.4953899155108223
  0.5006334913141127  0.8264177580811931  0.7550853004191208
  0.0013938612567511  0.3375894963301617 -0.0025594857917198
  0.8345310972223957  0.8315865998415893  0.7526655547877042
  0.8310955454896223  0.1673366535014569  0.2497230764063132
  0.5051686424612386  0.1736173721128970  0.7502883950873662
  0.3343983010279664  0.3357498431482394 -0.0001111173624040
  0.3330644049801363  0.0050264530673377  0.0000993556833986
  0.1633534183504783  0.8272580523673633  0.7510615206451110
  0.5004658245206429  0.4993160226773666  0.2492852451287921
  0.5000550881589020  0.4994196758803262  0.7496985393772273
  0.6646103957512831  0.0004718994690288  0.0012033106612017
  0.5059375832135014  0.1737168252791740  0.2461701217774800
 -0.0018439746102345  0.6615943461527823 -0.0008107228390625
  0.6659867003443363  0.3375650712520887  0.0006753896963049
  0.6663839697850943  0.3373961509530566  0.4981334836561800
  0.1687950601990784  0.5042978418366389  0.7483599535295732
  0.8324923423103544  0.5005612756198139  0.7500465410284914
  0.6668233451667175  0.6603172143506443  0.0003835701633172
  0.1644055765441129  0.1706080918073218  0.7496507326667876
  0.0003511866153216  0.0008468330479212  0.5026781441545122
  0.3347539445275901  0.6616586930532588 -0.0007525389897101
 -0.0029761300558428  0.6618660226224045  0.5022334740610624
  0.8319730431313969  0.5000421769849246  0.2490088385676658
  0.3337183135757066  0.0035780719350559  0.4979538928747742
 
  0.00000000E+00  0.00000000E+00  0.00000000E+00
  0.00000000E+00  0.00000000E+00  0.00000000E+00
  0.00000000E+00  0.00000000E+00  0.00000000E+00
  0.00000000E+00  0.00000000E+00  0.00000000E+00
  0.00000000E+00  0.00000000E+00  0.00000000E+00
  0.00000000E+00  0.00000000E+00  0.00000000E+00
  0.00000000E+00  0.00000000E+00  0.00000000E+00
  0.00000000E+00  0.00000000E+00  0.00000000E+00
  0.00000000E+00  0.00000000E+00  0.00000000E+00
  0.00000000E+00  0.00000000E+00  0.00000000E+00
  0.00000000E+00  0.00000000E+00  0.00000000E+00
  0.00000000E+00  0.00000000E+00  0.00000000E+00
  0.00000000E+00  0.00000000E+00  0.00000000E+00
  0.00000000E+00  0.00000000E+00  0.00000000E+00
  0.00000000E+00  0.00000000E+00  0.00000000E+00
  0.00000000E+00  0.00000000E+00  0.00000000E+00
  0.00000000E+00  0.00000000E+00  0.00000000E+00
  0.00000000E+00  0.00000000E+00  0.00000000E+00
  0.00000000E+00  0.00000000E+00  0.00000000E+00
  0.00000000E+00  0.00000000E+00  0.00000000E+00
  0.00000000E+00  0.00000000E+00  0.00000000E+00
  0.00000000E+00  0.00000000E+00  0.00000000E+00
  0.00000000E+00  0.00000000E+00  0.00000000E+00
  0.00000000E+00  0.00000000E+00  0.00000000E+00
  0.00000000E+00  0.00000000E+00  0.00000000E+00
  0.00000000E+00  0.00000000E+00  0.00000000E+00
  0.00000000E+00  0.00000000E+00  0.00000000E+00
  0.00000000E+00  0.00000000E+00  0.00000000E+00
  0.00000000E+00  0.00000000E+00  0.00000000E+00
  0.00000000E+00  0.00000000E+00  0.00000000E+00
  0.00000000E+00  0.00000000E+00  0.00000000E+00
  0.00000000E+00  0.00000000E+00  0.00000000E+00
  0.00000000E+00  0.00000000E+00  0.00000000E+00
  0.00000000E+00  0.00000000E+00  0.00000000E+00
  0.00000000E+00  0.00000000E+00  0.00000000E+00
  0.00000000E+00  0.00000000E+00  0.00000000E+00
