title                                   
    1.000000000000000     
     9.9481005692235946   -0.0041286220949577   -0.0907067671541202
    -0.0042783962162758    9.9335182035987355    0.0832236543629676
    -0.0603331400924517    0.0552417549228190    6.6822425752272956
   Hf   Mo   Nb   Ta
     9     9     9     9
Direct
  0.1662002481277186  0.5054523897183670  0.7311691691884860
  0.0095998118435254  0.3258458362535292  0.0043527989349707
  0.8361249510111683  0.5039155731351167  0.2465114351989635
  0.6656589034729760  0.3319220605584812  0.4925758322949431
  0.4984445215036934  0.8430690322964502  0.2527336879844054
  0.4967490421149968  0.4979177839976916  0.7496374828934341
  0.4976462638622568  0.1648785339047124  0.7627938323282276
  0.3312184481419482  0.6621042899172226  0.0143215957978105
  0.8337445885649758  0.8313482105062729  0.7528563091866770
  0.3307730972733500  0.6701203941386105  0.4938524760379860
  0.6714395409637807  0.3315273088125549  0.0009220966396997
  0.5020529729931217  0.5006996034841237  0.2490933558938141
  0.6718727083074695 -0.0012400377394193 -0.0001162249096902
  0.1680647456681971  0.1600739116175844  0.2530072089069195
  0.3263771200202287 -0.0011096386057365 -0.0012850254218414
  0.1629415781378699  0.5056429765794730  0.2633207364472575
  0.0000116831263915  0.6700427224940431  0.4991116240247932
  0.0026270491965057  0.0028687119549319  0.5000656621741824
  0.0025823863361463  0.3260006347890806  0.4938355660824466
  0.0123023626021791  0.6668701465283947  0.0103639227321452
  0.6569294055910390  0.6639868860104290  0.0070160743828620
  0.6599551269126458  0.6610225106593228  0.4958699430020421
  0.6704641129311961  0.0079043425169485  0.4993464252206491
  0.8340330895694787  0.1572094794859064  0.7534580220667537
  0.0044414309899136  0.0032347159748151  0.0072872417451746
  0.3265598348350567  0.0066285793606319  0.4950967704732349
  0.8359553072741418  0.8338945161299974  0.2564214722826587
  0.4982276238610275  0.8388107928744797  0.7502807207343722
  0.8302007129011566  0.1604347008974157  0.2439018776469230
  0.1722581453696171  0.1603195681014672  0.7462927581975201
  0.1633551352070378  0.8363098735445579  0.7435037314747331
  0.5044124421052035  0.1595780545261597  0.2291336187983020
  0.1650065310616909  0.8357102832245804  0.2641750347528055
  0.8356806453548939  0.5076474556034019  0.7480211355447992
  0.3309310261109193  0.3328210290411852  0.4692668479429137
  0.3251574066564824  0.3365367677072171  0.0218047833186254
 
  0.00000000E+00  0.00000000E+00  0.00000000E+00
  0.00000000E+00  0.00000000E+00  0.00000000E+00
  0.00000000E+00  0.00000000E+00  0.00000000E+00
  0.00000000E+00  0.00000000E+00  0.00000000E+00
  0.00000000E+00  0.00000000E+00  0.00000000E+00
  0.00000000E+00  0.00000000E+00  0.00000000E+00
  0.00000000E+00  0.00000000E+00  0.00000000E+00
  0.00000000E+00  0.00000000E+00  0.00000000E+00
  0.00000000E+00  0.00000000E+00  0.00000000E+00
  0.00000000E+00  0.00000000E+00  0.00000000E+00
  0.00000000E+00  0.00000000E+00  0.00000000E+00
  0.00000000E+00  0.00000000E+00  0.00000000E+00
  0.00000000E+00  0.00000000E+00  0.00000000E+00
  0.00000000E+00  0.00000000E+00  0.00000000E+00
  0.00000000E+00  0.00000000E+00  0.00000000E+00
  0.00000000E+00  0.00000000E+00  0.00000000E+00
  0.00000000E+00  0.00000000E+00  0.00000000E+00
  0.00000000E+00  0.00000000E+00  0.00000000E+00
  0.00000000E+00  0.00000000E+00  0.00000000E+00
  0.00000000E+00  0.00000000E+00  0.00000000E+00
  0.00000000E+00  0.00000000E+00  0.00000000E+00
  0.00000000E+00  0.00000000E+00  0.00000000E+00
  0.00000000E+00  0.00000000E+00  0.00000000E+00
  0.00000000E+00  0.00000000E+00  0.00000000E+00
  0.00000000E+00  0.00000000E+00  0.00000000E+00
  0.00000000E+00  0.00000000E+00  0.00000000E+00
  0.00000000E+00  0.00000000E+00  0.00000000E+00
  0.00000000E+00  0.00000000E+00  0.00000000E+00
  0.00000000E+00  0.00000000E+00  0.00000000E+00
  0.00000000E+00  0.00000000E+00  0.00000000E+00
  0.00000000E+00  0.00000000E+00  0.00000000E+00
  0.00000000E+00  0.00000000E+00  0.00000000E+00
  0.00000000E+00  0.00000000E+00  0.00000000E+00
  0.00000000E+00  0.00000000E+00  0.00000000E+00
  0.00000000E+00  0.00000000E+00  0.00000000E+00
  0.00000000E+00  0.00000000E+00  0.00000000E+00
