title                                   
    1.000000000000000     
     9.5191124885245202    0.0419897820047603    0.0070183581839785
     0.0420377153745515    9.5935567228521901    0.0166459320519981
     0.0046598216793383    0.0110923583881234    6.3714050440030361
   Mo   Ti   V    Zr
    19    10     4     3
Direct
  0.6643525643616753 -0.0011531132346408  0.5029436338777108
  0.3312641908312630  0.3344009148932719  0.0064062901593277
  0.4957571171815096  0.4969441480486085  0.2528665055985438
  0.6661902282739840  0.3308152214485943  0.0032406280052538
  0.8298888318969974  0.1692633860431838  0.7485371054359777
  0.1710776112275149  0.4958440851045509  0.2472956778957166
  0.8332357899646554  0.4891093818246680  0.7519777542327242
  0.8340761112797191  0.4851899961152731  0.2520012361166952
  0.0017952644997102  0.3323318484789518  0.0021599690411675
  0.3390972935546216  0.6622111465965275  0.5041441395940079
  0.8296760505478941  0.8393043797582640  0.7493537573865000
  0.0025320006175307  0.3325540235650108  0.5027377590204952
  0.6650768007181577  0.3344898421549855  0.4994317716589372
  0.4991761211544034  0.1657447979946897  0.2533185612520674
  0.3349833719573261  0.6626224486270860 -0.0070990373978802
  0.1722359672954484  0.4927257719091125  0.7511035830595205
  0.1697122333781938  0.1697528585992269  0.2515371657506935
  0.8269224396092119  0.8442374462957135  0.2546793937995517
  0.3387834448505608  0.0045517194300422 -0.0071488420753448
 -0.0018808906331088  0.6614607841166152 -0.0036252865492911
  0.8294515766997833  0.1701143254015166  0.2548818946026630
  0.4962996316583958  0.1702635817994275  0.7461604416601554
  0.1712799094288094  0.1669827057273189  0.7512684635914196
  0.4906554630485341  0.8399554123457985  0.2564408154224362
  0.6699008345645928 -0.0022722627391473 -0.0047277914244809
  0.4977223261743015  0.4899884914548684  0.7473970204032886
 -0.0101871675360837 -0.0042316775068903 -0.0114257763289543
 -0.0030719322531553 -0.0001377489900198  0.5153861827882696
  0.6698379903926828  0.6681326658266417  0.4999731043566285
  0.3301155427617077  0.3334001578472390  0.4862101670426469
  0.1879891928582072  0.8355871578712225  0.7560508762039682
  0.3345800501882732  0.0123339281088479  0.4988228186284331
  0.4863455806498847  0.8451935119899413  0.7364502343711549
  0.1788614391841860  0.8358267752180930  0.2448313046197711
 -0.0028793067798164  0.6665929527151305  0.5064667577356345
  0.6691463263924268  0.6698689351602772 -0.0000482795354092
 
  0.00000000E+00  0.00000000E+00  0.00000000E+00
  0.00000000E+00  0.00000000E+00  0.00000000E+00
  0.00000000E+00  0.00000000E+00  0.00000000E+00
  0.00000000E+00  0.00000000E+00  0.00000000E+00
  0.00000000E+00  0.00000000E+00  0.00000000E+00
  0.00000000E+00  0.00000000E+00  0.00000000E+00
  0.00000000E+00  0.00000000E+00  0.00000000E+00
  0.00000000E+00  0.00000000E+00  0.00000000E+00
  0.00000000E+00  0.00000000E+00  0.00000000E+00
  0.00000000E+00  0.00000000E+00  0.00000000E+00
  0.00000000E+00  0.00000000E+00  0.00000000E+00
  0.00000000E+00  0.00000000E+00  0.00000000E+00
  0.00000000E+00  0.00000000E+00  0.00000000E+00
  0.00000000E+00  0.00000000E+00  0.00000000E+00
  0.00000000E+00  0.00000000E+00  0.00000000E+00
  0.00000000E+00  0.00000000E+00  0.00000000E+00
  0.00000000E+00  0.00000000E+00  0.00000000E+00
  0.00000000E+00  0.00000000E+00  0.00000000E+00
  0.00000000E+00  0.00000000E+00  0.00000000E+00
  0.00000000E+00  0.00000000E+00  0.00000000E+00
  0.00000000E+00  0.00000000E+00  0.00000000E+00
  0.00000000E+00  0.00000000E+00  0.00000000E+00
  0.00000000E+00  0.00000000E+00  0.00000000E+00
  0.00000000E+00  0.00000000E+00  0.00000000E+00
  0.00000000E+00  0.00000000E+00  0.00000000E+00
  0.00000000E+00  0.00000000E+00  0.00000000E+00
  0.00000000E+00  0.00000000E+00  0.00000000E+00
  0.00000000E+00  0.00000000E+00  0.00000000E+00
  0.00000000E+00  0.00000000E+00  0.00000000E+00
  0.00000000E+00  0.00000000E+00  0.00000000E+00
  0.00000000E+00  0.00000000E+00  0.00000000E+00
  0.00000000E+00  0.00000000E+00  0.00000000E+00
  0.00000000E+00  0.00000000E+00  0.00000000E+00
  0.00000000E+00  0.00000000E+00  0.00000000E+00
  0.00000000E+00  0.00000000E+00  0.00000000E+00
  0.00000000E+00  0.00000000E+00  0.00000000E+00
