title                                   
    1.000000000000000     
     9.5481229770263756   -0.0438932701976392    0.0130772344536399
    -0.0439368133479805    9.5301552416920590   -0.0143906493893055
     0.0087422059566360   -0.0095998473886067    6.3419307128973683
   Mo   Ti   W 
     8    10    18
Direct
  0.1671787263815212  0.5009174215258052  0.7526238913804458
  0.3331131231589748 -0.0009721288103868  0.5000620892646508
  0.1669467002916588  0.5000153698412788  0.2495323831319972
  0.6652512122503064  0.6677741481061237  0.0003148520338258
  0.6664668824145021 -0.0026975812564795 -0.0014049949981322
  0.5035753947656948  0.4984325651681206  0.7499909328991530
  0.5022974819860805  0.8324969999746641  0.2501571962925839
  0.8329753948002516  0.8326853171226998  0.7522973798351975
  0.0011007250946359  0.6673934219338993  0.4971359276202443
  0.8268948893984858  0.1659225668513786  0.2465067515581684
  0.1704482501801917  0.8387963091949633  0.7519045938089235
  0.5012616675748903  0.1648983806437984  0.2510036414276314
  0.0035069283530696  0.3350482703123981  0.4992299842522100
  0.3333695496121901  0.6623633406912092  0.4968629390700233
  0.0038198268210299  0.3361830011270101 -0.0004134758694157
  0.3339914360418242  0.6630052760793785  0.0041157662174762
 -0.0027966501380272  0.0012382248843023  0.4991185319684012
  0.8294074546938235  0.5019748895288020  0.7516198238730838
  0.4986136617490118  0.1658578964991304  0.7490670148686044
  0.6648829442443716  0.3341653225169215 -0.0021333165973220
  0.3307760499208077  0.3356593069446187  0.5013689337107572
  0.5015417960147988  0.4949083040902150  0.2509747108032859
  0.0022231816015827  0.6662092819203830  0.0035322133095061
  0.6651607937278855  0.6676936859073569  0.4988618124642127
  0.5008663697442072  0.8349517027695212  0.7509081497195947
 -0.0002524815295036  0.0030976230924573 -0.0015916513191186
  0.1688859653613034  0.1629568663165531  0.7502364912349188
  0.1662046552181664  0.8362273665803960  0.2464625666335215
  0.3302101937477314  0.3349404657253566  0.0003263188829554
  0.6683404824906295 -0.0033532484907126  0.5024016041077688
  0.8299760910370896  0.1685436580779983  0.7511019554311490
  0.8329602287941595  0.8343616093091619  0.2475504008493935
  0.1712196027098677  0.1651966396293480  0.2493546892274724
  0.6656279176790350  0.3335079495598166  0.5015951076758276
  0.3342655290792633 -0.0014273532889561  0.0017437384460117
  0.8296880247284896  0.5010271299214687  0.2475810467849904
 
  0.00000000E+00  0.00000000E+00  0.00000000E+00
  0.00000000E+00  0.00000000E+00  0.00000000E+00
  0.00000000E+00  0.00000000E+00  0.00000000E+00
  0.00000000E+00  0.00000000E+00  0.00000000E+00
  0.00000000E+00  0.00000000E+00  0.00000000E+00
  0.00000000E+00  0.00000000E+00  0.00000000E+00
  0.00000000E+00  0.00000000E+00  0.00000000E+00
  0.00000000E+00  0.00000000E+00  0.00000000E+00
  0.00000000E+00  0.00000000E+00  0.00000000E+00
  0.00000000E+00  0.00000000E+00  0.00000000E+00
  0.00000000E+00  0.00000000E+00  0.00000000E+00
  0.00000000E+00  0.00000000E+00  0.00000000E+00
  0.00000000E+00  0.00000000E+00  0.00000000E+00
  0.00000000E+00  0.00000000E+00  0.00000000E+00
  0.00000000E+00  0.00000000E+00  0.00000000E+00
  0.00000000E+00  0.00000000E+00  0.00000000E+00
  0.00000000E+00  0.00000000E+00  0.00000000E+00
  0.00000000E+00  0.00000000E+00  0.00000000E+00
  0.00000000E+00  0.00000000E+00  0.00000000E+00
  0.00000000E+00  0.00000000E+00  0.00000000E+00
  0.00000000E+00  0.00000000E+00  0.00000000E+00
  0.00000000E+00  0.00000000E+00  0.00000000E+00
  0.00000000E+00  0.00000000E+00  0.00000000E+00
  0.00000000E+00  0.00000000E+00  0.00000000E+00
  0.00000000E+00  0.00000000E+00  0.00000000E+00
  0.00000000E+00  0.00000000E+00  0.00000000E+00
  0.00000000E+00  0.00000000E+00  0.00000000E+00
  0.00000000E+00  0.00000000E+00  0.00000000E+00
  0.00000000E+00  0.00000000E+00  0.00000000E+00
  0.00000000E+00  0.00000000E+00  0.00000000E+00
  0.00000000E+00  0.00000000E+00  0.00000000E+00
  0.00000000E+00  0.00000000E+00  0.00000000E+00
  0.00000000E+00  0.00000000E+00  0.00000000E+00
  0.00000000E+00  0.00000000E+00  0.00000000E+00
  0.00000000E+00  0.00000000E+00  0.00000000E+00
  0.00000000E+00  0.00000000E+00  0.00000000E+00
