title                                   
    1.000000000000000     
     9.6921174730995112   -0.0052805469115086    0.0066986157054873
    -0.0051256973287975    9.6991388506614769   -0.0041926679184783
     0.0045064389716991   -0.0028047910313093    6.5058015645116480
   Mo   Nb   Ta   V    Zr
     3     4    15    11     3
Direct
  0.6752268873614181  0.6693864181353637  0.5005342522900461
  0.1683283837548472  0.1589241068098529  0.2495308574002090
  0.6682273654872753 -0.0027576410506947  0.0091139384386877
  0.4988740114691213  0.1625649398253416  0.7525965715841330
  0.0043160485978380  0.3308406162837589  0.5032805972865781
  0.1682536412653128  0.1574952119327321  0.7478545301568650
  0.3354138010908618  0.3343614122039928  0.0019559420080042
 -0.0046271431833428  0.6741064067549288  0.0006954599018877
  0.8392401404411141  0.5023285413987899  0.2687538026047345
  0.1664197704820483  0.5067877399225553  0.7508664619795727
  0.4979457492096004  0.8427292453543761  0.2495915241605255
  0.1671614522054571  0.8340172075125554  0.7443188862158024
  0.8289216305847585  0.1571076837992126  0.2547938309806388
  0.6600199832602940  0.3388130383001894  0.5000482064685932
  0.4980610136854048  0.5088211664862372  0.7477412840303186
  0.1669544932231334  0.5051609289548805  0.2470341037342524
  0.5015613736894680  0.1579213773510704  0.2468869223826759
  0.6661572402427818  0.3442712415123744  0.0022912289216282
  0.3310765418521696  0.6683514053801712  0.4850861680172886
  0.0036510162388079 -0.0142312465533697  0.0152482788270786
  0.3369032708427354  0.3317363821567888  0.4938388711141464
  0.0014259831226160  0.3308084553069947  0.0015540496537160
 -0.0018884029723830  0.6746720152853358  0.5045498423845941
  0.8394987313141795  0.5053633721831979  0.7393504899694469
  0.8383912632497000  0.8316890772038080  0.7260810083261536
  0.1678217232603701  0.8332483735166253  0.2541367857070910
  0.4966593281737883  0.5047291042343129  0.2503703659688026
  0.3287103758683182  0.6693434029870139  0.0106482541045459
  0.8338607780411976  0.8350697070678196  0.2768440361715074
  0.6765419368363745 -0.0096362173285920  0.4895297760112585
  0.3176365670579646  0.0054391162002404  0.0158514128745315
  0.3164544577387390  0.0061328411087743  0.4787903332745646
  0.0005812895157540 -0.0200946416635458  0.4849461792477670
  0.4966377881391571  0.8438542606260546  0.7475811520421759
  0.8298681017187992  0.1522947840055280  0.7467695195331077
  0.6797134071343220  0.6683501667953236  0.0009350762270692
 
  0.00000000E+00  0.00000000E+00  0.00000000E+00
  0.00000000E+00  0.00000000E+00  0.00000000E+00
  0.00000000E+00  0.00000000E+00  0.00000000E+00
  0.00000000E+00  0.00000000E+00  0.00000000E+00
  0.00000000E+00  0.00000000E+00  0.00000000E+00
  0.00000000E+00  0.00000000E+00  0.00000000E+00
  0.00000000E+00  0.00000000E+00  0.00000000E+00
  0.00000000E+00  0.00000000E+00  0.00000000E+00
  0.00000000E+00  0.00000000E+00  0.00000000E+00
  0.00000000E+00  0.00000000E+00  0.00000000E+00
  0.00000000E+00  0.00000000E+00  0.00000000E+00
  0.00000000E+00  0.00000000E+00  0.00000000E+00
  0.00000000E+00  0.00000000E+00  0.00000000E+00
  0.00000000E+00  0.00000000E+00  0.00000000E+00
  0.00000000E+00  0.00000000E+00  0.00000000E+00
  0.00000000E+00  0.00000000E+00  0.00000000E+00
  0.00000000E+00  0.00000000E+00  0.00000000E+00
  0.00000000E+00  0.00000000E+00  0.00000000E+00
  0.00000000E+00  0.00000000E+00  0.00000000E+00
  0.00000000E+00  0.00000000E+00  0.00000000E+00
  0.00000000E+00  0.00000000E+00  0.00000000E+00
  0.00000000E+00  0.00000000E+00  0.00000000E+00
  0.00000000E+00  0.00000000E+00  0.00000000E+00
  0.00000000E+00  0.00000000E+00  0.00000000E+00
  0.00000000E+00  0.00000000E+00  0.00000000E+00
  0.00000000E+00  0.00000000E+00  0.00000000E+00
  0.00000000E+00  0.00000000E+00  0.00000000E+00
  0.00000000E+00  0.00000000E+00  0.00000000E+00
  0.00000000E+00  0.00000000E+00  0.00000000E+00
  0.00000000E+00  0.00000000E+00  0.00000000E+00
  0.00000000E+00  0.00000000E+00  0.00000000E+00
  0.00000000E+00  0.00000000E+00  0.00000000E+00
  0.00000000E+00  0.00000000E+00  0.00000000E+00
  0.00000000E+00  0.00000000E+00  0.00000000E+00
  0.00000000E+00  0.00000000E+00  0.00000000E+00
  0.00000000E+00  0.00000000E+00  0.00000000E+00
