title                                   
    1.000000000000000     
     9.8059714177428603    0.0312789405837395   -0.0194741494454329
     0.0313745088705196    9.7443764855753265   -0.0067107412087020
    -0.0130364100781907   -0.0043288823028453    6.5535991246536405
   Mo   Ti   W    Zr
     4    14    11     7
Direct
  0.1720439677618590  0.1715413212835599  0.2452872721003304
  0.1748418023398785  0.4964766619547551  0.7543840771397442
  0.3357548714406657  0.6649583451661657  0.5051629859412110
  0.4983723404554448  0.5103830200979198  0.7484159561008823
  0.0045439821619538  0.3361366006230335  0.4766955169117565
 -0.0080876423486407 -0.0089641684885867  0.0365065754460567
  0.6602128536579076  0.3246015271085664  0.0001512523488310
  0.6660671209618092  0.0041371928623370 -0.0008001434823481
  0.3384739673352378  0.0118461224166721  0.4891023852527925
 -0.0009599336459299  0.6712857729522980  0.0121750994713378
  0.1942916068719588  0.8267667002943180  0.2428841408998241
  0.1801547927697655  0.5058802838247449  0.2486460045299570
  0.8064016207976579  0.8287042731290637  0.2548620921225229
  0.5015027938413269  0.8328573109651878  0.2493585354487259
  0.3346723576693060  0.3362729075648034 -0.0153913601298777
  0.4986209059278425  0.8300699534156365  0.7472946749862687
  0.4946606452200567  0.1571414770477306  0.2459491858622385
 -0.0045916723504076 -0.0015885661100008  0.4655174082588206
  0.8299781178447926  0.1624830024178391  0.2504590189236789
  0.6625095809691203  0.0009204545960656  0.5032756728280917
  0.3290972334025196  0.3281785901157800  0.5058182842008986
  0.8287407154349431  0.5078452300226821  0.2419514805116308
  0.6679557486289414  0.6689227546243257  0.5065023474493940
  0.3344605490246256  0.6602245658314736 -0.0106613216807938
  0.8170943744627335  0.8315025358865548  0.7514454643318291
  0.6692852720507768  0.6691489273152814 -0.0035746149271710
  0.0046161481154888  0.3353918758098589  0.0249741660592312
  0.3408184537974564  0.0096517342307496  0.0039290316202550
  0.4941171848511836  0.1603107465874360  0.7468078477554922
  0.6621905925437027  0.3312641939031152  0.4967040577442424
  0.8372930277031831  0.4960289704284367  0.7613508928126854
  0.8451453662320141  0.1620873937308989  0.7563096271296793
  0.4942377438014724  0.5076978221616435  0.2498070208327992
  0.1596766935565205  0.1636393604820272  0.7518108078988801
  0.1739767620671906  0.8377637506501675  0.7579259502840161
  0.0018300546456415  0.6684313550974601  0.4989626070160863
 
  0.00000000E+00  0.00000000E+00  0.00000000E+00
  0.00000000E+00  0.00000000E+00  0.00000000E+00
  0.00000000E+00  0.00000000E+00  0.00000000E+00
  0.00000000E+00  0.00000000E+00  0.00000000E+00
  0.00000000E+00  0.00000000E+00  0.00000000E+00
  0.00000000E+00  0.00000000E+00  0.00000000E+00
  0.00000000E+00  0.00000000E+00  0.00000000E+00
  0.00000000E+00  0.00000000E+00  0.00000000E+00
  0.00000000E+00  0.00000000E+00  0.00000000E+00
  0.00000000E+00  0.00000000E+00  0.00000000E+00
  0.00000000E+00  0.00000000E+00  0.00000000E+00
  0.00000000E+00  0.00000000E+00  0.00000000E+00
  0.00000000E+00  0.00000000E+00  0.00000000E+00
  0.00000000E+00  0.00000000E+00  0.00000000E+00
  0.00000000E+00  0.00000000E+00  0.00000000E+00
  0.00000000E+00  0.00000000E+00  0.00000000E+00
  0.00000000E+00  0.00000000E+00  0.00000000E+00
  0.00000000E+00  0.00000000E+00  0.00000000E+00
  0.00000000E+00  0.00000000E+00  0.00000000E+00
  0.00000000E+00  0.00000000E+00  0.00000000E+00
  0.00000000E+00  0.00000000E+00  0.00000000E+00
  0.00000000E+00  0.00000000E+00  0.00000000E+00
  0.00000000E+00  0.00000000E+00  0.00000000E+00
  0.00000000E+00  0.00000000E+00  0.00000000E+00
  0.00000000E+00  0.00000000E+00  0.00000000E+00
  0.00000000E+00  0.00000000E+00  0.00000000E+00
  0.00000000E+00  0.00000000E+00  0.00000000E+00
  0.00000000E+00  0.00000000E+00  0.00000000E+00
  0.00000000E+00  0.00000000E+00  0.00000000E+00
  0.00000000E+00  0.00000000E+00  0.00000000E+00
  0.00000000E+00  0.00000000E+00  0.00000000E+00
  0.00000000E+00  0.00000000E+00  0.00000000E+00
  0.00000000E+00  0.00000000E+00  0.00000000E+00
  0.00000000E+00  0.00000000E+00  0.00000000E+00
  0.00000000E+00  0.00000000E+00  0.00000000E+00
  0.00000000E+00  0.00000000E+00  0.00000000E+00
