title                                   
    1.000000000000000     
    10.0761196645510669    0.0052906394679926   -0.0233260900816288
     0.0052135306578101   10.0535421197901016    0.0041179402963442
    -0.0155396942949194    0.0029007560229432    6.6598223269260348
   Hf   Mo   Nb   W 
    14     4    11     7
Direct
 -0.0137939664912982  0.3418525046194547  0.4916716910765756
  0.3359767952541804  0.3130117619370273  0.5310676731806028
  0.4886840968838980  0.5037850810558366  0.2390962433592895
  0.3341110724470972 -0.0052972119313879  0.5021579786006027
  0.3364092520187969 -0.0063951462210039 -0.0023308814398042
  0.5110804116317568  0.1662185292853065  0.2447758706210222
  0.6743780860239833  0.6651073965701325  0.4961666407732293
  0.1766034274783140  0.4986736772133638  0.2387823341545009
  0.1711494110152442  0.5052958648286865  0.7591485063816003
  0.6822632428025454  0.3432656964473775  0.4921481208514965
 -0.0140165471970941  0.6648765345025995  0.4948715803531599
  0.8352315915134327  0.1586437103113745  0.7487980361109687
  0.1574578287741087  0.1705079882332337  0.2382549264526217
  0.4966974385491072  0.5086340828059255  0.7631434174474994
  0.6688626823660385 -0.0100647623963713  0.4959018613512305
  0.8325138431841400  0.5037397949639534  0.2352299943383636
  0.8375382687893046  0.1589820320139831  0.2452744999366274
  0.6701447523837606  0.6711399920711369  0.0082061907570447
  0.6685522764616886 -0.0075068839654530  0.0075539965433293
  0.1487541161949570  0.1642324126819728  0.7586393857422253
 -0.0041011218814806 -0.0065462437492421  0.0036015070862002
  0.5065372720292749  0.8274715408604514  0.7494604210229250
  0.1592378941616791  0.8330004487855855  0.2531987587709210
 -0.0105360788701362  0.6682623743208056  0.0046704329200943
  0.3339469374882409  0.6909231991961087  0.0005462459124487
  0.6793593609019619  0.3400232002486318  0.0086471362971988
  0.1600970835796545  0.8297074178330248  0.7443051343847812
  0.5188328325512268  0.1595566241798398  0.7578700941964858
  0.8295066008320113  0.8418085394112392  0.7506119413976671
  0.5062453802821935  0.8305252815791511  0.2529602020169865
  0.3382215686868493  0.6849212785405364  0.4981362743818792
  0.8343139156747038  0.4996341597395884  0.7697520392882223
 -0.0046506326208854 -0.0067936931715721  0.4924514679742769
 -0.0097848466934676  0.3398806029038167  0.0013491593399346
  0.3346624668071752  0.3186815259345900 -0.0248442208256141
  0.8295132869870357  0.8402406883602965  0.2487253392434056
 
  0.00000000E+00  0.00000000E+00  0.00000000E+00
  0.00000000E+00  0.00000000E+00  0.00000000E+00
  0.00000000E+00  0.00000000E+00  0.00000000E+00
  0.00000000E+00  0.00000000E+00  0.00000000E+00
  0.00000000E+00  0.00000000E+00  0.00000000E+00
  0.00000000E+00  0.00000000E+00  0.00000000E+00
  0.00000000E+00  0.00000000E+00  0.00000000E+00
  0.00000000E+00  0.00000000E+00  0.00000000E+00
  0.00000000E+00  0.00000000E+00  0.00000000E+00
  0.00000000E+00  0.00000000E+00  0.00000000E+00
  0.00000000E+00  0.00000000E+00  0.00000000E+00
  0.00000000E+00  0.00000000E+00  0.00000000E+00
  0.00000000E+00  0.00000000E+00  0.00000000E+00
  0.00000000E+00  0.00000000E+00  0.00000000E+00
  0.00000000E+00  0.00000000E+00  0.00000000E+00
  0.00000000E+00  0.00000000E+00  0.00000000E+00
  0.00000000E+00  0.00000000E+00  0.00000000E+00
  0.00000000E+00  0.00000000E+00  0.00000000E+00
  0.00000000E+00  0.00000000E+00  0.00000000E+00
  0.00000000E+00  0.00000000E+00  0.00000000E+00
  0.00000000E+00  0.00000000E+00  0.00000000E+00
  0.00000000E+00  0.00000000E+00  0.00000000E+00
  0.00000000E+00  0.00000000E+00  0.00000000E+00
  0.00000000E+00  0.00000000E+00  0.00000000E+00
  0.00000000E+00  0.00000000E+00  0.00000000E+00
  0.00000000E+00  0.00000000E+00  0.00000000E+00
  0.00000000E+00  0.00000000E+00  0.00000000E+00
  0.00000000E+00  0.00000000E+00  0.00000000E+00
  0.00000000E+00  0.00000000E+00  0.00000000E+00
  0.00000000E+00  0.00000000E+00  0.00000000E+00
  0.00000000E+00  0.00000000E+00  0.00000000E+00
  0.00000000E+00  0.00000000E+00  0.00000000E+00
  0.00000000E+00  0.00000000E+00  0.00000000E+00
  0.00000000E+00  0.00000000E+00  0.00000000E+00
  0.00000000E+00  0.00000000E+00  0.00000000E+00
  0.00000000E+00  0.00000000E+00  0.00000000E+00
