title                                   
    1.000000000000000     
     9.7767658892574723   -0.0176994075382265   -0.0053509225558900
    -0.0176369533317459    9.7841910709444910   -0.0372585362813985
    -0.0037181473141028   -0.0253508302440352    6.6677319943036908
   Nb   Ti   W    Zr
    10    19     4     3
Direct
  0.5024291319364741  0.8375115995680293  0.2751493407208603
  0.8447697279855036  0.4959821781536271  0.7509585222769876
  0.4990287472460712  0.4799530806756835  0.7408277909086646
  0.6723377406692681  0.3382655788688400  0.5040708214577193
 -0.0040821312921346  0.6728398815739325 -0.0025022705156179
  0.3229068684036147  0.3273225579532412  0.4884571724074276
  0.5051121637839465  0.1744306006168035  0.2552986084721465
 -0.0106165028000377  0.6635236153447343  0.5060186515259595
  0.8343397203596247  0.5010301938257411  0.2535198707932467
  0.3274932354574017  0.0069141163645541  0.0115410568177423
  0.4975659566418486  0.4916589574404610  0.2645742068977957
  0.1580489236497114  0.8394291728699477  0.7307411281414100
 -0.0015972057393202 -0.0002776212985972 -0.0027187517306897
  0.6723678871751371  0.3312773840201693  0.0012608388406810
  0.3453837171025020  0.6651510046445204  0.5198035743411478
  0.1661548409507373  0.1577224088300674  0.7432901172981149
  0.1555811844858412  0.4962323574970116  0.7494352544833509
  0.0097968297102954  0.3299471450802882  0.4782742894711503
  0.1541786809529389  0.8277777900745665  0.2650056657852810
  0.8406658339384926  0.8408720105633654  0.2657264755660911
  0.3281654044096811  0.3259243996062552  0.0066145283937380
  0.3283372086039744  0.0069759826129864  0.4752722450401245
  0.0022681271347394  0.3225726235924375  0.0152555531892392
  0.1684082106240324  0.5101053579630277  0.2537392966686064
  0.4956316385254004  0.1666444556047844  0.7399339831663309
  0.6673229485302162  0.6692752791198869  0.5138871052555063
  0.8332216210684735  0.1575961754187563  0.2800758606499433
  0.8409063457060355  0.1635755307681928  0.7233788356099301
  0.4975269440181277  0.8578725735528039  0.7261683646453887
  0.6672025425465439 -0.0028485368856164  0.5019283781487172
  0.1632841195317348  0.1607106624558816  0.2462171207078182
  0.0046289440053942  0.0017882953511734  0.4975935009640978
  0.8395772522267397  0.8396080015705494  0.7376382025852415
  0.3344920555878938  0.6695265719093765 -0.0104766492791384
  0.6731196655337237  0.0054063024232236 -0.0021937277467151
  0.6640416213293715  0.6677023122692960 -0.0037649619582985
 
  0.00000000E+00  0.00000000E+00  0.00000000E+00
  0.00000000E+00  0.00000000E+00  0.00000000E+00
  0.00000000E+00  0.00000000E+00  0.00000000E+00
  0.00000000E+00  0.00000000E+00  0.00000000E+00
  0.00000000E+00  0.00000000E+00  0.00000000E+00
  0.00000000E+00  0.00000000E+00  0.00000000E+00
  0.00000000E+00  0.00000000E+00  0.00000000E+00
  0.00000000E+00  0.00000000E+00  0.00000000E+00
  0.00000000E+00  0.00000000E+00  0.00000000E+00
  0.00000000E+00  0.00000000E+00  0.00000000E+00
  0.00000000E+00  0.00000000E+00  0.00000000E+00
  0.00000000E+00  0.00000000E+00  0.00000000E+00
  0.00000000E+00  0.00000000E+00  0.00000000E+00
  0.00000000E+00  0.00000000E+00  0.00000000E+00
  0.00000000E+00  0.00000000E+00  0.00000000E+00
  0.00000000E+00  0.00000000E+00  0.00000000E+00
  0.00000000E+00  0.00000000E+00  0.00000000E+00
  0.00000000E+00  0.00000000E+00  0.00000000E+00
  0.00000000E+00  0.00000000E+00  0.00000000E+00
  0.00000000E+00  0.00000000E+00  0.00000000E+00
  0.00000000E+00  0.00000000E+00  0.00000000E+00
  0.00000000E+00  0.00000000E+00  0.00000000E+00
  0.00000000E+00  0.00000000E+00  0.00000000E+00
  0.00000000E+00  0.00000000E+00  0.00000000E+00
  0.00000000E+00  0.00000000E+00  0.00000000E+00
  0.00000000E+00  0.00000000E+00  0.00000000E+00
  0.00000000E+00  0.00000000E+00  0.00000000E+00
  0.00000000E+00  0.00000000E+00  0.00000000E+00
  0.00000000E+00  0.00000000E+00  0.00000000E+00
  0.00000000E+00  0.00000000E+00  0.00000000E+00
  0.00000000E+00  0.00000000E+00  0.00000000E+00
  0.00000000E+00  0.00000000E+00  0.00000000E+00
  0.00000000E+00  0.00000000E+00  0.00000000E+00
  0.00000000E+00  0.00000000E+00  0.00000000E+00
  0.00000000E+00  0.00000000E+00  0.00000000E+00
  0.00000000E+00  0.00000000E+00  0.00000000E+00
