title                                   
    1.000000000000000     
     9.8129722395548455   -0.0148316408430058    0.0127643442295784
    -0.0148086557978612    9.7522589990827804    0.0010716278771588
     0.0085217396611859    0.0008748761885524    6.5312481616503621
   Hf   Mo   Ti   W 
     9     9     9     9
Direct
  0.1548259434445893  0.8313049126246408  0.2656260406348536
  0.3349914955827190 -0.0010589525570357 -0.0066362604221651
  0.3349945938428703  0.6659249457766477 -0.0015439361852257
  0.6543580419542685 -0.0142708341766589  0.5001714923944854
  0.8346236709129129  0.1672744215422584  0.2497028259723057
  0.3292157320049676  0.3349495096974455  0.5020984782506589
  0.8399491307037189  0.5016003402155920  0.2566051919643855
  0.5066844439103162  0.1747528052606693  0.2397459981562289
  0.8365942182494991  0.8356302278201955  0.7636355745790372
  0.0075218504949063  0.0055392131213724 -0.0020880273210961
  0.3344752854609055  0.6630209422400202  0.5046148862386469
  0.1613991266374309  0.1651240954267599  0.2483254017491092
  0.3298601515380739  0.0014213201246190  0.5035323709446274
  0.0099428205556225  0.3315103125116161  0.5087994905283171
 -0.0006393425733909 -0.0006998816185974  0.5017261200168170
  0.4957070791692390  0.8311835580507805  0.2529041912488224
  0.4987640220709409  0.8275567567274779  0.7519349682236909
  0.1691850541765875  0.4977460778177202  0.7470347045522516
 -0.0000507389558372  0.6593733092326971  0.5315871960704858
  0.6782872975022737  0.3473282800683259 -0.0207541665450492
  0.8403419199098080  0.1626364017627782  0.7469831593143800
  0.5051548493667011  0.4979055134605181  0.7476269849616137
  0.5064988562460351  0.1756217326330616  0.7549700924008598
  0.0084722870912952  0.3371888581394813 -0.0139487092869143
  0.1612394212548940  0.4972956826995144  0.2558997048138811
  0.0094860744949982  0.6558116565399146 -0.0240103949699182
  0.6575966215336779  0.6751039079900444  0.4962226486213582
  0.5040578888718781  0.4996354699959030  0.2488786438189994
  0.6609459447026592 -0.0099107758121413  0.0035312426086324
  0.1613879948377553  0.8387736030286074  0.7400285100163992
  0.8280415301499919  0.4998897032954405  0.7471183309801982
  0.3253418959934924  0.3360336656837606 -0.0058822817903950
  0.1613242263511632  0.1644703178967363  0.7450034493187466
  0.6609305010170546  0.6637623767136834  0.0071282233763652
  0.6648495133328340  0.3466962757672941  0.5084577506803528
  0.8336405981631480  0.8338742502988564  0.2449701040842527
 
  0.00000000E+00  0.00000000E+00  0.00000000E+00
  0.00000000E+00  0.00000000E+00  0.00000000E+00
  0.00000000E+00  0.00000000E+00  0.00000000E+00
  0.00000000E+00  0.00000000E+00  0.00000000E+00
  0.00000000E+00  0.00000000E+00  0.00000000E+00
  0.00000000E+00  0.00000000E+00  0.00000000E+00
  0.00000000E+00  0.00000000E+00  0.00000000E+00
  0.00000000E+00  0.00000000E+00  0.00000000E+00
  0.00000000E+00  0.00000000E+00  0.00000000E+00
  0.00000000E+00  0.00000000E+00  0.00000000E+00
  0.00000000E+00  0.00000000E+00  0.00000000E+00
  0.00000000E+00  0.00000000E+00  0.00000000E+00
  0.00000000E+00  0.00000000E+00  0.00000000E+00
  0.00000000E+00  0.00000000E+00  0.00000000E+00
  0.00000000E+00  0.00000000E+00  0.00000000E+00
  0.00000000E+00  0.00000000E+00  0.00000000E+00
  0.00000000E+00  0.00000000E+00  0.00000000E+00
  0.00000000E+00  0.00000000E+00  0.00000000E+00
  0.00000000E+00  0.00000000E+00  0.00000000E+00
  0.00000000E+00  0.00000000E+00  0.00000000E+00
  0.00000000E+00  0.00000000E+00  0.00000000E+00
  0.00000000E+00  0.00000000E+00  0.00000000E+00
  0.00000000E+00  0.00000000E+00  0.00000000E+00
  0.00000000E+00  0.00000000E+00  0.00000000E+00
  0.00000000E+00  0.00000000E+00  0.00000000E+00
  0.00000000E+00  0.00000000E+00  0.00000000E+00
  0.00000000E+00  0.00000000E+00  0.00000000E+00
  0.00000000E+00  0.00000000E+00  0.00000000E+00
  0.00000000E+00  0.00000000E+00  0.00000000E+00
  0.00000000E+00  0.00000000E+00  0.00000000E+00
  0.00000000E+00  0.00000000E+00  0.00000000E+00
  0.00000000E+00  0.00000000E+00  0.00000000E+00
  0.00000000E+00  0.00000000E+00  0.00000000E+00
  0.00000000E+00  0.00000000E+00  0.00000000E+00
  0.00000000E+00  0.00000000E+00  0.00000000E+00
  0.00000000E+00  0.00000000E+00  0.00000000E+00
