title                                   
    1.000000000000000     
     9.9798768533637503    0.0002448358153264   -0.0086134624805474
     0.0005709589273910   10.3510263345467912   -0.1301958249114613
    -0.0056852124286870   -0.0851840892178703    6.9670518424270451
   Hf   Mo   Ti   W    Zr
     6     1    15     2    12
Direct
  0.8326216835002915  0.8358345843507762  0.7383074996688349
  0.5172305025684826  0.1993709688381100  0.2123881268782431
  0.5008535221890376  0.8254929706144720  0.7445024221992051
  0.3255394752450628  0.3246262353094712 -0.0611104756696268
  0.1650183033701598  0.8342983417907798  0.7532160758323252
  0.1526680102862290  0.1826284748410864  0.2322743671187911
  0.1722416329825222  0.8227007090328210  0.2632398055625049
  0.6857438918111903  0.6814165750886364  0.0091312719830190
  0.5043529526141127  0.8019835705219213  0.2765809159628945
  0.6704275990662656 -0.0258696197561369  0.0332158781082168
  0.3155124476831599  0.6870424415762313  0.0259410775223789
  0.0103113961506550 -0.0153646522850227  0.4602146607591693
 -0.0052154003259576  0.3626216983653037 -0.0376541431947969
 -0.0079259891593478 -0.0388924599865306  0.0496195928184919
  0.1917387154301790  0.5281950297454011  0.7330546853473623
  0.8129636861599880  0.5270095961836844  0.7240695213452397
  0.0005184558673218  0.6686633357494611  0.0046257154105574
  0.3428070701038293  0.3230654427604290  0.5159570595293591
  0.6877996280743612  0.3530900981940758 -0.0506282801530338
  0.6549625362944441  0.3260525926083885  0.5341872170159164
  0.8191547335020607  0.8171332446916284  0.2890947483493396
  0.5243615337736126  0.1507358853237021  0.7809222225568618
  0.6644357735099974  0.6678695146328769  0.4982502364190517
  0.3257337174440130  0.6776191045411476  0.4814316055811743
  0.6501952879372002  0.0083723950994199  0.4713408225885158
  0.8376383100555962  0.1769553517308865  0.2310914759899243
  0.0059826427406162  0.6625438901076558  0.4904027527421022
  0.4997872966069966  0.5193779042496010  0.7411179733353833
  0.3427647175301570 -0.0101379130556814  0.0329895116698408
  0.8185510602549015  0.4942240293529009  0.2571088106561880
  0.4979184609701567  0.5046249769837317  0.2497488835395073
  0.1374085321374769  0.1373440137074341  0.7698838764974690
  0.8307517969967990  0.1487718136051865  0.7670147231336468
  0.3356561759991239  0.0068202110791271  0.4929265990287252
  0.0030585979070576  0.3439636320387149  0.5414803495719849
  0.1764312427222473  0.4898160123683093  0.2440624142952332
 
  0.00000000E+00  0.00000000E+00  0.00000000E+00
  0.00000000E+00  0.00000000E+00  0.00000000E+00
  0.00000000E+00  0.00000000E+00  0.00000000E+00
  0.00000000E+00  0.00000000E+00  0.00000000E+00
  0.00000000E+00  0.00000000E+00  0.00000000E+00
  0.00000000E+00  0.00000000E+00  0.00000000E+00
  0.00000000E+00  0.00000000E+00  0.00000000E+00
  0.00000000E+00  0.00000000E+00  0.00000000E+00
  0.00000000E+00  0.00000000E+00  0.00000000E+00
  0.00000000E+00  0.00000000E+00  0.00000000E+00
  0.00000000E+00  0.00000000E+00  0.00000000E+00
  0.00000000E+00  0.00000000E+00  0.00000000E+00
  0.00000000E+00  0.00000000E+00  0.00000000E+00
  0.00000000E+00  0.00000000E+00  0.00000000E+00
  0.00000000E+00  0.00000000E+00  0.00000000E+00
  0.00000000E+00  0.00000000E+00  0.00000000E+00
  0.00000000E+00  0.00000000E+00  0.00000000E+00
  0.00000000E+00  0.00000000E+00  0.00000000E+00
  0.00000000E+00  0.00000000E+00  0.00000000E+00
  0.00000000E+00  0.00000000E+00  0.00000000E+00
  0.00000000E+00  0.00000000E+00  0.00000000E+00
  0.00000000E+00  0.00000000E+00  0.00000000E+00
  0.00000000E+00  0.00000000E+00  0.00000000E+00
  0.00000000E+00  0.00000000E+00  0.00000000E+00
  0.00000000E+00  0.00000000E+00  0.00000000E+00
  0.00000000E+00  0.00000000E+00  0.00000000E+00
  0.00000000E+00  0.00000000E+00  0.00000000E+00
  0.00000000E+00  0.00000000E+00  0.00000000E+00
  0.00000000E+00  0.00000000E+00  0.00000000E+00
  0.00000000E+00  0.00000000E+00  0.00000000E+00
  0.00000000E+00  0.00000000E+00  0.00000000E+00
  0.00000000E+00  0.00000000E+00  0.00000000E+00
  0.00000000E+00  0.00000000E+00  0.00000000E+00
  0.00000000E+00  0.00000000E+00  0.00000000E+00
  0.00000000E+00  0.00000000E+00  0.00000000E+00
  0.00000000E+00  0.00000000E+00  0.00000000E+00
