title                                   
    1.000000000000000     
     9.6452537638656093    0.0009341410900260    0.0480079171907508
     0.0011480467134225    9.8110911794710134    0.0500106737229043
     0.0318555769269910    0.0334934367736792    6.4465091920269133
   Mo   Ti   V    Zr
     4    14    11     7
Direct
  0.3267720294687649 -0.0068895724698157  0.0033067107666554
  0.3288021438469799  0.6657889699327000 -0.0037167271724616
  0.5038170462744341  0.1703865442334824  0.2579793835023686
  0.8294050396843387  0.4998907227609631  0.7510141987891901
  0.1646046194970104  0.1629510961946883  0.7759737651048115
 -0.0026807777235478  0.6660830172016596  0.0015490077831943
  0.4860826807351222  0.8194038951112940  0.7540190857048570
  0.3407290977821955  0.3283882703811584  0.4953705941219009
  0.3201974952192553 -0.0030573335931341  0.4957208773614728
  0.0021488339075821  0.6688870710248659  0.4886793385972457
  0.0045938494548897 -0.0337827705605326 -0.0016341439855740
  0.1568149296574436  0.1576219173147262  0.2111811733542308
  0.6631576186000550  0.3430253445821425  0.0101386205619487
  0.8451217009029541  0.1843464753554540  0.2318017774053525
  0.6736074541484663  0.0147636364197805  0.4674421848084635
  0.1768619306932149  0.5170511493112991  0.7548216827955662
  0.8105541305690832  0.8083542638735680  0.2388465204973227
  0.5033793046074675  0.5116642752900811  0.2766319161957242
  0.6667816812857577  0.6304619559669982 -0.0113596706138968
  0.8236654148328980  0.5051092222146244  0.2500308426965008
  0.1832581907656109  0.8290205795444548  0.2288207577695665
  0.1776309741658057  0.5254486811254333  0.2342111488313292
  0.6780235449391470  0.6388967137355107  0.5160849826104414
  0.3119315708827666  0.6772479197750392  0.4980516225489142
  0.6635766759172380  0.3440333483023152  0.5022396730037620
  0.1841318426384428  0.8202417039946795  0.7535593345557023
 -0.0043433805777310  0.3721229895411748  0.0121209229104654
  0.6668657849000017  0.0208644791226934  0.0492532470558676
  0.5049837637027456  0.5111289567785048  0.7312211397891484
  0.5011604385003761  0.8248078603707835  0.2487316673697839
  0.8439956863868516  0.1720387155018473  0.7714981831378864
  0.5061948273174678  0.1441657961019400  0.7564908393161694
  0.0138358947817024  0.3483798229503424  0.4836280497437571
  0.3405761787022660  0.3385704315200667  0.0074214354837602
  0.0070630751050271 -0.0115017864343594  0.4931619788588977
  0.7966987084279170  0.8340856375235693  0.7657078787396765
 
  0.00000000E+00  0.00000000E+00  0.00000000E+00
  0.00000000E+00  0.00000000E+00  0.00000000E+00
  0.00000000E+00  0.00000000E+00  0.00000000E+00
  0.00000000E+00  0.00000000E+00  0.00000000E+00
  0.00000000E+00  0.00000000E+00  0.00000000E+00
  0.00000000E+00  0.00000000E+00  0.00000000E+00
  0.00000000E+00  0.00000000E+00  0.00000000E+00
  0.00000000E+00  0.00000000E+00  0.00000000E+00
  0.00000000E+00  0.00000000E+00  0.00000000E+00
  0.00000000E+00  0.00000000E+00  0.00000000E+00
  0.00000000E+00  0.00000000E+00  0.00000000E+00
  0.00000000E+00  0.00000000E+00  0.00000000E+00
  0.00000000E+00  0.00000000E+00  0.00000000E+00
  0.00000000E+00  0.00000000E+00  0.00000000E+00
  0.00000000E+00  0.00000000E+00  0.00000000E+00
  0.00000000E+00  0.00000000E+00  0.00000000E+00
  0.00000000E+00  0.00000000E+00  0.00000000E+00
  0.00000000E+00  0.00000000E+00  0.00000000E+00
  0.00000000E+00  0.00000000E+00  0.00000000E+00
  0.00000000E+00  0.00000000E+00  0.00000000E+00
  0.00000000E+00  0.00000000E+00  0.00000000E+00
  0.00000000E+00  0.00000000E+00  0.00000000E+00
  0.00000000E+00  0.00000000E+00  0.00000000E+00
  0.00000000E+00  0.00000000E+00  0.00000000E+00
  0.00000000E+00  0.00000000E+00  0.00000000E+00
  0.00000000E+00  0.00000000E+00  0.00000000E+00
  0.00000000E+00  0.00000000E+00  0.00000000E+00
  0.00000000E+00  0.00000000E+00  0.00000000E+00
  0.00000000E+00  0.00000000E+00  0.00000000E+00
  0.00000000E+00  0.00000000E+00  0.00000000E+00
  0.00000000E+00  0.00000000E+00  0.00000000E+00
  0.00000000E+00  0.00000000E+00  0.00000000E+00
  0.00000000E+00  0.00000000E+00  0.00000000E+00
  0.00000000E+00  0.00000000E+00  0.00000000E+00
  0.00000000E+00  0.00000000E+00  0.00000000E+00
  0.00000000E+00  0.00000000E+00  0.00000000E+00
