title                                   
    1.000000000000000     
     9.2742000817923831   -0.0043692363014870   -0.0063326869389071
    -0.0043725418717236    9.2743109482952804   -0.0098366583693233
    -0.0042238573376878   -0.0065531907698426    6.1719649900239109
   Cr   Mo   Nb   V    W 
    11     4     3     3    15
Direct
 -0.0035713134119750 -0.0017899903609257  0.4997645105930895
 -0.0018279102847588  0.6663232659354685 -0.0016467573650381
 -0.0033885681969594 -0.0012101910141529 -0.0008180557263889
  0.3339012115122180 -0.0020065707870074 -0.0004625470629790
  0.3304284578496891  0.3334800124700838 -0.0026580596079180
  0.8365419923098952  0.8334545120716894  0.2522121906304617
  0.8359691287754165  0.1669425635908811  0.7495630349464366
 -0.0036273413660584  0.3358966912673777  0.5053913298127433
  0.8366372428805734  0.5014833888715722  0.7495846912549256
  0.6720058307675022  0.3321727838430407 -0.0014467237707685
  0.5005175467837488  0.8341394369143312  0.2485747829851415
  0.8367747708697973  0.5022745730827760  0.2526982643191134
  0.1576837343825306  0.8349394902819068  0.2462173368450664
  0.5005506829558689  0.1671654333757046  0.7576373406858911
  0.5011684726601925  0.8336381781379327  0.7513344858996172
  0.3307117232287693  0.3332225611439564  0.5049921698237082
  0.5031200116102380  0.4981731976926695  0.2475013215384429
  0.1625371767577243  0.1642177686803249  0.2444969277527479
  0.6727276876858056  0.6691045802961570  0.4987246931811918
  0.1598526356884259  0.5013141679707122  0.7509578311733414
 -0.0042502195369774  0.6664575507680470  0.5004702004119278
  0.6709597560561852 -0.0031599891573769  0.4975758984024883
  0.6735566737317553  0.6689605792051475  0.0031502040490204
  0.3308471853619455  0.6690595621336443  0.4999235442468636
  0.1600528722151635  0.8348095243494176  0.7534219038713361
  0.3343631678753030 -0.0036145814943574  0.4971394112767851
  0.8402227762213608  0.8327927445166203  0.7492709560155677
  0.6713543387172042 -0.0016181764378297  0.0008622620632485
  0.1606020616710754  0.1630995195035859  0.7511372981872341
  0.5007237844204366  0.1659963716749246  0.2427728635385797
  0.1606967799638019  0.5009764021111995  0.2476717683151694
  0.3311466163036795  0.6694721142911059  0.0004989314141573
  0.8379438249261841  0.1657304027063090  0.2499424714308882
  0.5036965878136760  0.4992170552158007  0.7553429494120435
  0.6755734659762888  0.3326128950101300  0.5096427870227147
 -0.0062028451757263  0.3362721721391352 -0.0114422175668503
 
  0.00000000E+00  0.00000000E+00  0.00000000E+00
  0.00000000E+00  0.00000000E+00  0.00000000E+00
  0.00000000E+00  0.00000000E+00  0.00000000E+00
  0.00000000E+00  0.00000000E+00  0.00000000E+00
  0.00000000E+00  0.00000000E+00  0.00000000E+00
  0.00000000E+00  0.00000000E+00  0.00000000E+00
  0.00000000E+00  0.00000000E+00  0.00000000E+00
  0.00000000E+00  0.00000000E+00  0.00000000E+00
  0.00000000E+00  0.00000000E+00  0.00000000E+00
  0.00000000E+00  0.00000000E+00  0.00000000E+00
  0.00000000E+00  0.00000000E+00  0.00000000E+00
  0.00000000E+00  0.00000000E+00  0.00000000E+00
  0.00000000E+00  0.00000000E+00  0.00000000E+00
  0.00000000E+00  0.00000000E+00  0.00000000E+00
  0.00000000E+00  0.00000000E+00  0.00000000E+00
  0.00000000E+00  0.00000000E+00  0.00000000E+00
  0.00000000E+00  0.00000000E+00  0.00000000E+00
  0.00000000E+00  0.00000000E+00  0.00000000E+00
  0.00000000E+00  0.00000000E+00  0.00000000E+00
  0.00000000E+00  0.00000000E+00  0.00000000E+00
  0.00000000E+00  0.00000000E+00  0.00000000E+00
  0.00000000E+00  0.00000000E+00  0.00000000E+00
  0.00000000E+00  0.00000000E+00  0.00000000E+00
  0.00000000E+00  0.00000000E+00  0.00000000E+00
  0.00000000E+00  0.00000000E+00  0.00000000E+00
  0.00000000E+00  0.00000000E+00  0.00000000E+00
  0.00000000E+00  0.00000000E+00  0.00000000E+00
  0.00000000E+00  0.00000000E+00  0.00000000E+00
  0.00000000E+00  0.00000000E+00  0.00000000E+00
  0.00000000E+00  0.00000000E+00  0.00000000E+00
  0.00000000E+00  0.00000000E+00  0.00000000E+00
  0.00000000E+00  0.00000000E+00  0.00000000E+00
  0.00000000E+00  0.00000000E+00  0.00000000E+00
  0.00000000E+00  0.00000000E+00  0.00000000E+00
  0.00000000E+00  0.00000000E+00  0.00000000E+00
  0.00000000E+00  0.00000000E+00  0.00000000E+00
