title                                   
    1.000000000000000     
     9.8615668386627284   -0.0800675870181312    0.0916091630428344
    -0.0796178105887869    9.8569457539349532   -0.0529351017149051
     0.0618619259977150   -0.0362036246696758    6.6631815998924022
   Ti   V    Zr
    12    12    12
Direct
  0.1575984152498396  0.8360550194641230  0.2666168524811138
  0.5063530385396605  0.1631153464644495  0.2474054792588463
 -0.0226387093193623  0.0239250452125217  0.4976874295186264
  0.2896326116743958  0.3128203333976432  0.0516061829440345
  0.7961826163451448  0.1698857401886697  0.2179183401956916
  0.1865723215942962  0.1610075296955361  0.7330820166261959
  0.3402689469424006 -0.0059593373033693 -0.0029863382365026
  0.6804423780841936  0.3147533624214519  0.5225240813156730
  0.4967230129286145  0.1598073599593604  0.7452319279559788
  0.5214604600431143  0.8652943416786413  0.2414490334984206
  0.3235638670081145  0.3355133027615163  0.4653546932305097
  0.8356392097306995  0.4967876980589428  0.2349083954205610
  0.0150850271383054  0.6545135932904945  0.0390569304561720
  0.6736523529266497  0.0141781504733634  0.5214525249211459
  0.1435534557836836  0.5129877149147728  0.2387042394394462
  0.2167473493894099  0.1213783191737495  0.3148946870150374
  0.8231666916178314  0.1686711882848506  0.7728886647634967
  0.3587496397947819 -0.0179645210981670  0.5228071025833252
 -0.0083397292327261  0.3363640283577908  0.0083644520317614
  0.0065720173753667  0.6513503812382914  0.4607925335106381
  0.6410145876252513  0.6900127397196347 -0.0256386290395443
  0.6576509248154119  0.0095338788323271 -0.0303031294165701
  0.5167220006184403  0.8661673853294476  0.7525400212158486
  0.6819947493725936  0.3154524588409083 -0.0451194056226840
  0.5287161389190859  0.4798523688967913  0.2216075632507432
  0.1466084033263977  0.8368542679362307  0.7450642230464518
  0.8352808379769702  0.8383999074769967  0.7564481741274093
  0.4866930812890401  0.4653274760096446  0.7622326559483502
  0.8371653062249174  0.5130408025760018  0.7637339740735869
  0.3392488535815637  0.6780262905668712  0.0017544649861690
  0.8298588958771135  0.8335975500319749  0.2408226726814203
  0.3322419399297732  0.6689764063432838  0.4919208794938927
  0.0187206714858540  0.0473880527590251  0.0356355145652467
  0.1586587464350352  0.4917313500541868  0.7588725751487407
  0.6411247964722251  0.6770701033989065  0.5116936451940512
  0.0073150924359151  0.3140843645931353  0.4589755714167160
 
  0.00000000E+00  0.00000000E+00  0.00000000E+00
  0.00000000E+00  0.00000000E+00  0.00000000E+00
  0.00000000E+00  0.00000000E+00  0.00000000E+00
  0.00000000E+00  0.00000000E+00  0.00000000E+00
  0.00000000E+00  0.00000000E+00  0.00000000E+00
  0.00000000E+00  0.00000000E+00  0.00000000E+00
  0.00000000E+00  0.00000000E+00  0.00000000E+00
  0.00000000E+00  0.00000000E+00  0.00000000E+00
  0.00000000E+00  0.00000000E+00  0.00000000E+00
  0.00000000E+00  0.00000000E+00  0.00000000E+00
  0.00000000E+00  0.00000000E+00  0.00000000E+00
  0.00000000E+00  0.00000000E+00  0.00000000E+00
  0.00000000E+00  0.00000000E+00  0.00000000E+00
  0.00000000E+00  0.00000000E+00  0.00000000E+00
  0.00000000E+00  0.00000000E+00  0.00000000E+00
  0.00000000E+00  0.00000000E+00  0.00000000E+00
  0.00000000E+00  0.00000000E+00  0.00000000E+00
  0.00000000E+00  0.00000000E+00  0.00000000E+00
  0.00000000E+00  0.00000000E+00  0.00000000E+00
  0.00000000E+00  0.00000000E+00  0.00000000E+00
  0.00000000E+00  0.00000000E+00  0.00000000E+00
  0.00000000E+00  0.00000000E+00  0.00000000E+00
  0.00000000E+00  0.00000000E+00  0.00000000E+00
  0.00000000E+00  0.00000000E+00  0.00000000E+00
  0.00000000E+00  0.00000000E+00  0.00000000E+00
  0.00000000E+00  0.00000000E+00  0.00000000E+00
  0.00000000E+00  0.00000000E+00  0.00000000E+00
  0.00000000E+00  0.00000000E+00  0.00000000E+00
  0.00000000E+00  0.00000000E+00  0.00000000E+00
  0.00000000E+00  0.00000000E+00  0.00000000E+00
  0.00000000E+00  0.00000000E+00  0.00000000E+00
  0.00000000E+00  0.00000000E+00  0.00000000E+00
  0.00000000E+00  0.00000000E+00  0.00000000E+00
  0.00000000E+00  0.00000000E+00  0.00000000E+00
  0.00000000E+00  0.00000000E+00  0.00000000E+00
  0.00000000E+00  0.00000000E+00  0.00000000E+00
