title                                   
    1.000000000000000     
     9.2179668838070281   -0.0825315269746340   -0.0630630644390567
    -0.0824436703301656    9.2440110573533847    0.0289515952920190
    -0.0419941851474244    0.0193868122350285    6.1640309380678788
   Cr   Nb   Ta   Ti
    19     4    10     3
Direct
  0.6644788613393832  0.3295432050041223  0.0041470808756901
  0.8338142001430585  0.8321959584370832  0.2543705220187055
  0.3370101606843132  0.6686339071306316 -0.0137916550233590
  0.0043103269849427  0.6723871815569791 -0.0030883381822592
  0.0026664035908730  0.0128582899529751 -0.0037413480569473
  0.8406176555027096  0.1688034851618529  0.7691403065594556
  0.1714285886034778  0.8345788775079572  0.7468873384818100
 -0.0015975495443178  0.3189580007148946 -0.0015483975890901
  0.1623055290521802  0.1612780389306592  0.7511164844999776
  0.5020586703272554  0.5033288061551197  0.2531752609567537
  0.1666558404308610  0.5043837592861218  0.7539568012697357
  0.1582491495795345  0.1647597306918899  0.2323077890580102
  0.6568306428594936  0.6671465607375204  0.5058591986684968
  0.4976645541624650  0.8290757246348854  0.7477878350181628
  0.5033320670314293  0.5038583533043051  0.7527465155861748
  0.3362271930772935 -0.0041829571694827  0.4994573599084399
  0.4966438910937280  0.8298560206160055  0.2568496711015342
  0.8359431393914247  0.1742397430183688  0.2399362352671664
  0.5005825923628153  0.1652068230216208  0.7482301717386235
  0.3335342742779767 -0.0014829957585654 -0.0196869078621087
  0.4976491859519725  0.1641727993582535  0.2463649962095328
  0.0033560907448845  0.0085364786119752  0.4945226666766661
  0.1684422557217455  0.8376011753837781  0.2334496173624849
  0.6642218239208779  0.3296336488040797  0.5100309445371716
  0.8402413960763385  0.8324789796985114  0.7641366764615134
  0.3408950632171955  0.6668433795854275  0.5051246213399978
  0.8347795854184143  0.4978285316912638  0.7729886360962435
  0.0034883960717785  0.6697461467603600  0.5025585047019984
  0.1584482274279008  0.5018803142305646  0.2285870043501149
  0.3291727619616127  0.3303471700788222  0.5030674932484934
  0.6669239311637131 -0.0027510665787366  0.5023130643436508
  0.6527909004154426  0.6714304107715061  0.0155951082533921
  0.3325826087128784  0.3360215556390129 -0.0151343534101791
  0.0017307983304886  0.3226520385610322  0.5093616625381234
  0.8310030466470573  0.4962204526314705  0.2461523489550557
  0.6715177372668009  0.0019314718377329  0.0067690840407683
 
  0.00000000E+00  0.00000000E+00  0.00000000E+00
  0.00000000E+00  0.00000000E+00  0.00000000E+00
  0.00000000E+00  0.00000000E+00  0.00000000E+00
  0.00000000E+00  0.00000000E+00  0.00000000E+00
  0.00000000E+00  0.00000000E+00  0.00000000E+00
  0.00000000E+00  0.00000000E+00  0.00000000E+00
  0.00000000E+00  0.00000000E+00  0.00000000E+00
  0.00000000E+00  0.00000000E+00  0.00000000E+00
  0.00000000E+00  0.00000000E+00  0.00000000E+00
  0.00000000E+00  0.00000000E+00  0.00000000E+00
  0.00000000E+00  0.00000000E+00  0.00000000E+00
  0.00000000E+00  0.00000000E+00  0.00000000E+00
  0.00000000E+00  0.00000000E+00  0.00000000E+00
  0.00000000E+00  0.00000000E+00  0.00000000E+00
  0.00000000E+00  0.00000000E+00  0.00000000E+00
  0.00000000E+00  0.00000000E+00  0.00000000E+00
  0.00000000E+00  0.00000000E+00  0.00000000E+00
  0.00000000E+00  0.00000000E+00  0.00000000E+00
  0.00000000E+00  0.00000000E+00  0.00000000E+00
  0.00000000E+00  0.00000000E+00  0.00000000E+00
  0.00000000E+00  0.00000000E+00  0.00000000E+00
  0.00000000E+00  0.00000000E+00  0.00000000E+00
  0.00000000E+00  0.00000000E+00  0.00000000E+00
  0.00000000E+00  0.00000000E+00  0.00000000E+00
  0.00000000E+00  0.00000000E+00  0.00000000E+00
  0.00000000E+00  0.00000000E+00  0.00000000E+00
  0.00000000E+00  0.00000000E+00  0.00000000E+00
  0.00000000E+00  0.00000000E+00  0.00000000E+00
  0.00000000E+00  0.00000000E+00  0.00000000E+00
  0.00000000E+00  0.00000000E+00  0.00000000E+00
  0.00000000E+00  0.00000000E+00  0.00000000E+00
  0.00000000E+00  0.00000000E+00  0.00000000E+00
  0.00000000E+00  0.00000000E+00  0.00000000E+00
  0.00000000E+00  0.00000000E+00  0.00000000E+00
  0.00000000E+00  0.00000000E+00  0.00000000E+00
  0.00000000E+00  0.00000000E+00  0.00000000E+00
