title                                   
    1.000000000000000     
     9.4558674952074586    0.0552449509569840    0.0655008152041221
     0.0543370388969140    9.4537588858818413    0.0166471875970506
     0.0424375678115761    0.0099045076250512    6.5277053416965574
   Cr   Ti   V    Zr
     9     9     9     9
Direct
  0.1833188437772520  0.8550212783957611  0.7897775742768810
  0.8337352135894716  0.4769097829107150  0.7254458490968108
  0.3266831911750538  0.0018238610918587 -0.0142797469966923
  0.3226016940133744  0.3213049065464604 -0.0037455378287948
 -0.0265950720374553  0.3357879086743951  0.5204030444770409
  0.3376411072265895  0.6695617990567112  0.0043505235300742
  0.6924436679400057  0.0343697468146736  0.5455804239150713
  0.8309765238832492  0.8577621450760198  0.7325635180241092
  0.8350675080312802  0.1768983449665432  0.7415848378761237
  0.4828155688804185  0.4850090739469862  0.2179264283512571
  0.1697341439697068  0.4919757241284443  0.2178984559700680
  0.6969214311726843  0.0201862085183508 -0.0345085784387097
  0.3193600054716604  0.0042493570466147  0.5155182102445860
  0.1905281402330446  0.8472938921030237  0.2141177243650419
  0.6656495239794271  0.6397629265055336  0.4993110668223636
 -0.0096217397723011  0.3343254374687359 -0.0259661384492067
  0.6631098411145148  0.3323241599004791  0.5111337141721484
  0.4844628041538194  0.4803847566549655  0.7858274260051953
  0.8391036171981970  0.4648326354298125  0.2696990554485520
  0.8395189694421684  0.1821647389890819  0.2534713855118931
  0.1733119466849044  0.1671796934409457  0.7893554335483758
  0.0064781066487446  0.0137112508740359 -0.0141923852168702
  0.6809881154500976  0.3225319477186646 -0.0151292753795474
  0.4823529444041127  0.8236255414880183  0.2215043411136387
  0.1697720256626012  0.1613153669089673  0.2090969800336688
  0.1816995688458999  0.4968143039512643  0.7944589008954674
  0.4965340967090556  0.1690925649066619  0.7681381505787157
  0.5104678945350395  0.8473178186260504  0.7409900041753515
  0.3229838675059447  0.6674811827607239  0.5075582387009260
  0.5075542962717814  0.1401773585172835  0.2451698272121935
 -0.0017115116197831  0.6782817911430287 -0.0099434815122756
  0.6825684068720607  0.6477485011793386 -0.0093742824085859
  0.7972766124557312  0.8592323621661593  0.2753158637541717
  0.3061210386875816  0.3212991181710533  0.5071657541532008
 -0.0053879175171493  0.6606598159977586  0.5139824485044897
  0.0115355249612170  0.0115826979248792  0.5097942454732678
 
  0.00000000E+00  0.00000000E+00  0.00000000E+00
  0.00000000E+00  0.00000000E+00  0.00000000E+00
  0.00000000E+00  0.00000000E+00  0.00000000E+00
  0.00000000E+00  0.00000000E+00  0.00000000E+00
  0.00000000E+00  0.00000000E+00  0.00000000E+00
  0.00000000E+00  0.00000000E+00  0.00000000E+00
  0.00000000E+00  0.00000000E+00  0.00000000E+00
  0.00000000E+00  0.00000000E+00  0.00000000E+00
  0.00000000E+00  0.00000000E+00  0.00000000E+00
  0.00000000E+00  0.00000000E+00  0.00000000E+00
  0.00000000E+00  0.00000000E+00  0.00000000E+00
  0.00000000E+00  0.00000000E+00  0.00000000E+00
  0.00000000E+00  0.00000000E+00  0.00000000E+00
  0.00000000E+00  0.00000000E+00  0.00000000E+00
  0.00000000E+00  0.00000000E+00  0.00000000E+00
  0.00000000E+00  0.00000000E+00  0.00000000E+00
  0.00000000E+00  0.00000000E+00  0.00000000E+00
  0.00000000E+00  0.00000000E+00  0.00000000E+00
  0.00000000E+00  0.00000000E+00  0.00000000E+00
  0.00000000E+00  0.00000000E+00  0.00000000E+00
  0.00000000E+00  0.00000000E+00  0.00000000E+00
  0.00000000E+00  0.00000000E+00  0.00000000E+00
  0.00000000E+00  0.00000000E+00  0.00000000E+00
  0.00000000E+00  0.00000000E+00  0.00000000E+00
  0.00000000E+00  0.00000000E+00  0.00000000E+00
  0.00000000E+00  0.00000000E+00  0.00000000E+00
  0.00000000E+00  0.00000000E+00  0.00000000E+00
  0.00000000E+00  0.00000000E+00  0.00000000E+00
  0.00000000E+00  0.00000000E+00  0.00000000E+00
  0.00000000E+00  0.00000000E+00  0.00000000E+00
  0.00000000E+00  0.00000000E+00  0.00000000E+00
  0.00000000E+00  0.00000000E+00  0.00000000E+00
  0.00000000E+00  0.00000000E+00  0.00000000E+00
  0.00000000E+00  0.00000000E+00  0.00000000E+00
  0.00000000E+00  0.00000000E+00  0.00000000E+00
  0.00000000E+00  0.00000000E+00  0.00000000E+00
