title                                   
    1.000000000000000     
     9.8004631742683639    0.0187307657391167   -0.0044068906009540
     0.0187989442209307    9.7449893924366862   -0.0013350097029500
    -0.0029492739990420   -0.0008888070578590    6.4860654739635795
   Hf   Nb   Ta   W 
     3     4    10    19
Direct
  0.1649951462632560  0.8337698309329782  0.7470476152439988
  0.6670672406546121  0.6679177060061173 -0.0016746076818989
  0.1626258762199887  0.1661810584029715  0.7478969083827381
  0.5015143755469903  0.4963061737187561  0.2486415432026328
 -0.0097731876558610  0.0017012503284374  0.0057544001648713
  0.8357276331365631  0.4936728261102211  0.2533726537783061
  0.6658093859953914  0.0022523844368418  0.4993179470875349
 -0.0055464909607824  0.6635764012560451  0.0046126531335095
  0.1633462642158862  0.1660398353731452  0.2528685701561483
  0.8363129933578036  0.8379739278048995  0.7455871546055683
  0.1667928008828717  0.8333216701964080  0.2534726445094136
  0.6649664689430494  0.6673074436527220  0.5017055808198765
  0.1642408781679301  0.4998936650177480  0.7499204700072523
  0.3388845053098844  0.3348104424838380  0.4981266374598046
  0.3391439541899505  0.3334607199410141  0.0022961708719599
  0.3429828445619240  0.0007479262921846  0.0041643203327381
  0.3386146444032783  0.6634878379424656  0.4979645258298634
  0.5054561854644659  0.1662059157895226  0.2505401360569962
  0.3384899196375642  0.6650493410795126  0.0020650879690150
  0.8317366499736536  0.1689459341108688  0.2501474148961855
  0.3428488881608286 -0.0008099473780757  0.4959219442454257
 -0.0094512342083551  0.0022862235581388  0.4934508991480998
 -0.0025858447961936  0.6631348071671954  0.4957092106924372
  0.8358431590117493  0.4941765046381690  0.7465812098214113
  0.4977702268899429  0.8366717472436005  0.2509440873345854
 -0.0058009217320398  0.3354291926770200  0.0026390911776812
 -0.0051593687768381  0.3345896374096760  0.4979901029084366
  0.1647160748336340  0.4998897967679089  0.2506748266712786
  0.4974959412542317  0.8366955815165550  0.7487757575450550
  0.6674489545765714  0.3306143111763959  0.5027678459478365
  0.6668535160818584  0.3311776855238777 -0.0036690173043677
  0.5006986253310474  0.4968319103736826  0.7502139659490998
  0.8352006694265438  0.8376731434400188  0.2539104810770903
  0.6642526902076660  0.0026015200989489  0.0006588894153126
  0.8314737240402642  0.1692869131553570  0.7495574272601226
  0.5050068113906692  0.1671286817548337  0.7500454512839810
 
  0.00000000E+00  0.00000000E+00  0.00000000E+00
  0.00000000E+00  0.00000000E+00  0.00000000E+00
  0.00000000E+00  0.00000000E+00  0.00000000E+00
  0.00000000E+00  0.00000000E+00  0.00000000E+00
  0.00000000E+00  0.00000000E+00  0.00000000E+00
  0.00000000E+00  0.00000000E+00  0.00000000E+00
  0.00000000E+00  0.00000000E+00  0.00000000E+00
  0.00000000E+00  0.00000000E+00  0.00000000E+00
  0.00000000E+00  0.00000000E+00  0.00000000E+00
  0.00000000E+00  0.00000000E+00  0.00000000E+00
  0.00000000E+00  0.00000000E+00  0.00000000E+00
  0.00000000E+00  0.00000000E+00  0.00000000E+00
  0.00000000E+00  0.00000000E+00  0.00000000E+00
  0.00000000E+00  0.00000000E+00  0.00000000E+00
  0.00000000E+00  0.00000000E+00  0.00000000E+00
  0.00000000E+00  0.00000000E+00  0.00000000E+00
  0.00000000E+00  0.00000000E+00  0.00000000E+00
  0.00000000E+00  0.00000000E+00  0.00000000E+00
  0.00000000E+00  0.00000000E+00  0.00000000E+00
  0.00000000E+00  0.00000000E+00  0.00000000E+00
  0.00000000E+00  0.00000000E+00  0.00000000E+00
  0.00000000E+00  0.00000000E+00  0.00000000E+00
  0.00000000E+00  0.00000000E+00  0.00000000E+00
  0.00000000E+00  0.00000000E+00  0.00000000E+00
  0.00000000E+00  0.00000000E+00  0.00000000E+00
  0.00000000E+00  0.00000000E+00  0.00000000E+00
  0.00000000E+00  0.00000000E+00  0.00000000E+00
  0.00000000E+00  0.00000000E+00  0.00000000E+00
  0.00000000E+00  0.00000000E+00  0.00000000E+00
  0.00000000E+00  0.00000000E+00  0.00000000E+00
  0.00000000E+00  0.00000000E+00  0.00000000E+00
  0.00000000E+00  0.00000000E+00  0.00000000E+00
  0.00000000E+00  0.00000000E+00  0.00000000E+00
  0.00000000E+00  0.00000000E+00  0.00000000E+00
  0.00000000E+00  0.00000000E+00  0.00000000E+00
  0.00000000E+00  0.00000000E+00  0.00000000E+00
