title                                   
    1.000000000000000     
     9.6906649869768469   -0.0004452492060092    0.0151753713304546
    -0.0004535961138027    9.7655787843489694    0.0341953520416129
     0.0101104329464883    0.0229313758492410    6.4877260803803303
   Hf   Mo   Nb   Ta
     3    19     4    10
Direct
  0.3327095431004260  0.6650245723076751  0.5032304591028759
  0.0014611503140332  0.6662386564112404  0.5079143316570280
  0.6650986635841318  0.6693444494916763  0.0150273975205349
  0.8306242234684589  0.8405018648559295  0.7494820522675790
  0.3343987363026713  0.0006114850639273  0.4995027641187254
 -0.0017851937926151  0.0023305072395966  0.5013641074375298
  0.6681420295484687  0.3305468375258231  0.0029408822499221
  0.4998611859777554  0.8420830829534148  0.2553034793849808
  0.4998390646990403  0.1642195937392315  0.7481760762045425
  0.1672511388701762  0.1653663584733333  0.7466484790234567
  0.1664301229102057  0.4913326126994708  0.7585907343675423
  0.8324788953640961  0.1660550817676127  0.7473675189878011
  0.4996025318758160  0.4928597560924247  0.2515121750017690
  0.1686586024945224  0.8421322693436105  0.7511417902610064
  0.8306119294206518  0.1657972131829337  0.2457540227721049
 -0.0010555434558192  0.3296784282596851 -0.0040356206197828
  0.6674853080666415  0.0027187973896757  0.5003424022231906
  0.3338752497326307  0.3309200181238748 -0.0057658213089103
  0.6671761377857626  0.6660255417538207  0.5033178874665946
  0.3331898584961263  0.0016194632005057 -0.0087768420095330
  0.8338289172209842  0.4958823034227086  0.2538673676099167
  0.6677100304543432  0.0021274196660693 -0.0030249503791774
  0.1690696346773475  0.1661038079086783  0.2408537229453507
  0.8310698543789909  0.8421639693794469  0.2595985174043842
  0.5018143796763029  0.8422541309222416  0.7489689461824974
 -0.0016139747500501  0.6698049515726435  0.0004296669673803
  0.5046394199233518  0.4922940158553553  0.7562352242438082
  0.6687947888521146  0.3287964057358095  0.4965024873629427
  0.1657925667381510  0.4910825160965855  0.2381131149595155
  0.3341033434950301  0.3309497551564813  0.5007844586439747
  0.1678902668157043  0.8447741606701542  0.2469288484635222
  0.8299008708126860  0.4929073839937584  0.7597227788842223
  0.3358239971112366  0.6682435540098368  0.0015264790709401
 -0.0031080370963112  0.0043945142541097 -0.0108845081135366
 -0.0020629105558043  0.3300386039716983  0.4996079302715092
  0.5002932174827407  0.1627759175089607  0.2417316393737914
 
  0.00000000E+00  0.00000000E+00  0.00000000E+00
  0.00000000E+00  0.00000000E+00  0.00000000E+00
  0.00000000E+00  0.00000000E+00  0.00000000E+00
  0.00000000E+00  0.00000000E+00  0.00000000E+00
  0.00000000E+00  0.00000000E+00  0.00000000E+00
  0.00000000E+00  0.00000000E+00  0.00000000E+00
  0.00000000E+00  0.00000000E+00  0.00000000E+00
  0.00000000E+00  0.00000000E+00  0.00000000E+00
  0.00000000E+00  0.00000000E+00  0.00000000E+00
  0.00000000E+00  0.00000000E+00  0.00000000E+00
  0.00000000E+00  0.00000000E+00  0.00000000E+00
  0.00000000E+00  0.00000000E+00  0.00000000E+00
  0.00000000E+00  0.00000000E+00  0.00000000E+00
  0.00000000E+00  0.00000000E+00  0.00000000E+00
  0.00000000E+00  0.00000000E+00  0.00000000E+00
  0.00000000E+00  0.00000000E+00  0.00000000E+00
  0.00000000E+00  0.00000000E+00  0.00000000E+00
  0.00000000E+00  0.00000000E+00  0.00000000E+00
  0.00000000E+00  0.00000000E+00  0.00000000E+00
  0.00000000E+00  0.00000000E+00  0.00000000E+00
  0.00000000E+00  0.00000000E+00  0.00000000E+00
  0.00000000E+00  0.00000000E+00  0.00000000E+00
  0.00000000E+00  0.00000000E+00  0.00000000E+00
  0.00000000E+00  0.00000000E+00  0.00000000E+00
  0.00000000E+00  0.00000000E+00  0.00000000E+00
  0.00000000E+00  0.00000000E+00  0.00000000E+00
  0.00000000E+00  0.00000000E+00  0.00000000E+00
  0.00000000E+00  0.00000000E+00  0.00000000E+00
  0.00000000E+00  0.00000000E+00  0.00000000E+00
  0.00000000E+00  0.00000000E+00  0.00000000E+00
  0.00000000E+00  0.00000000E+00  0.00000000E+00
  0.00000000E+00  0.00000000E+00  0.00000000E+00
  0.00000000E+00  0.00000000E+00  0.00000000E+00
  0.00000000E+00  0.00000000E+00  0.00000000E+00
  0.00000000E+00  0.00000000E+00  0.00000000E+00
  0.00000000E+00  0.00000000E+00  0.00000000E+00
