title                                   
    1.000000000000000     
     9.5524640652424875    0.0195135687382015    0.0261037063113977
     0.0195425278435936    9.5722636013322298   -0.0049906973008512
     0.0173635443254171   -0.0034256369756502    6.4301663538687022
   Ta   Ti   V 
    12    12    12
Direct
  0.1657811402956506  0.1688273726448151  0.2688349933563094
  0.6732553173270570  0.0022086331297309  0.0029269096957047
  0.3286636205898574  0.3407805886617772  0.0015528100686552
  0.8428596363764755  0.8329404509867280  0.7422937230167084
  0.6709461381116182  0.3349463381849949  0.0001251595364119
  0.6674705088512718 -0.0063193741335680  0.4943520026649538
  0.4966279776761344  0.8276972093217352  0.2426512575305737
  0.8398357351623250  0.1707332731316941  0.7317041052343087
  0.0033013129191023  0.6629568515466266  0.0084993373498956
  0.3299317535026733  0.6637063122314432 -0.0050521162620258
  0.6694567450262725  0.6603374437815898 -0.0057054243358308
  0.3321755556319381  0.3526576535643496  0.5057460802475151
  0.8301339400153630  0.4885138580745870  0.2740954937681170
  0.5062559743509080  0.1750834464708959  0.7393015131776172
  0.0091591962702438  0.6602673539327842  0.4841516433883453
  0.0006571334307708  0.3388407863738308 -0.0008817250425549
  0.3291499140008259 -0.0051205939472194 -0.0102735409352394
  0.6596846356808238  0.6626895150473895  0.5110587812714728
 -0.0044969439395898  0.0005011372137603  0.0230478909534070
  0.1550479085837432  0.1676665569292625  0.7300652134694673
  0.1476371340498966  0.8418139336720706  0.7320223271027128
  0.5002780387282323  0.1754502748257551  0.2657496830409126
  0.3326826286873719  0.6619290827532561  0.5044443573899238
  0.3396259824138002 -0.0127439640908722  0.5185669688615491
 -0.0083202370185489 -0.0020975289894955  0.4614849100609045
  0.1675094378843613  0.8349968492481973  0.2585774838870148
  0.5038051103205472  0.4968653657572153  0.2497402644933670
  0.0013785709467790  0.3426468645730572  0.5007632188842569
  0.8316433635315331  0.1713029918504755  0.2606963822729476
  0.8345471649374124  0.4922507761375939  0.7304623334617260
  0.5040579941158253  0.4923813903115643  0.7565511941925402
  0.6667075148899767  0.3430763990961942  0.5084320039941933
  0.5094412819654485  0.8313106846373116  0.7647709780664026
  0.8347320874961160  0.8359764491551549  0.2482119685094182
  0.1666850263554970  0.4980503312415884  0.2489257525697118
  0.1616917008322875  0.4968752866737265  0.7521060650586052
 
  0.00000000E+00  0.00000000E+00  0.00000000E+00
  0.00000000E+00  0.00000000E+00  0.00000000E+00
  0.00000000E+00  0.00000000E+00  0.00000000E+00
  0.00000000E+00  0.00000000E+00  0.00000000E+00
  0.00000000E+00  0.00000000E+00  0.00000000E+00
  0.00000000E+00  0.00000000E+00  0.00000000E+00
  0.00000000E+00  0.00000000E+00  0.00000000E+00
  0.00000000E+00  0.00000000E+00  0.00000000E+00
  0.00000000E+00  0.00000000E+00  0.00000000E+00
  0.00000000E+00  0.00000000E+00  0.00000000E+00
  0.00000000E+00  0.00000000E+00  0.00000000E+00
  0.00000000E+00  0.00000000E+00  0.00000000E+00
  0.00000000E+00  0.00000000E+00  0.00000000E+00
  0.00000000E+00  0.00000000E+00  0.00000000E+00
  0.00000000E+00  0.00000000E+00  0.00000000E+00
  0.00000000E+00  0.00000000E+00  0.00000000E+00
  0.00000000E+00  0.00000000E+00  0.00000000E+00
  0.00000000E+00  0.00000000E+00  0.00000000E+00
  0.00000000E+00  0.00000000E+00  0.00000000E+00
  0.00000000E+00  0.00000000E+00  0.00000000E+00
  0.00000000E+00  0.00000000E+00  0.00000000E+00
  0.00000000E+00  0.00000000E+00  0.00000000E+00
  0.00000000E+00  0.00000000E+00  0.00000000E+00
  0.00000000E+00  0.00000000E+00  0.00000000E+00
  0.00000000E+00  0.00000000E+00  0.00000000E+00
  0.00000000E+00  0.00000000E+00  0.00000000E+00
  0.00000000E+00  0.00000000E+00  0.00000000E+00
  0.00000000E+00  0.00000000E+00  0.00000000E+00
  0.00000000E+00  0.00000000E+00  0.00000000E+00
  0.00000000E+00  0.00000000E+00  0.00000000E+00
  0.00000000E+00  0.00000000E+00  0.00000000E+00
  0.00000000E+00  0.00000000E+00  0.00000000E+00
  0.00000000E+00  0.00000000E+00  0.00000000E+00
  0.00000000E+00  0.00000000E+00  0.00000000E+00
  0.00000000E+00  0.00000000E+00  0.00000000E+00
  0.00000000E+00  0.00000000E+00  0.00000000E+00
