title                                   
    1.000000000000000     
     9.9890547027547409    0.0128689096498569   -0.0504690259549760
     0.0128829339041168   10.0035154380733484    0.0115729553619074
    -0.0336851953945142    0.0077403723267683    6.7031588023936539
   Hf   Nb   V    W 
    14    11     4     7
Direct
  0.8277099453998851  0.1580830797279149  0.7506885932696986
  0.0063158683052354  0.3224551901054257  0.4889671507284407
  0.1712555869043295  0.5003368245483887  0.2292681259905408
 -0.0055513293858797  0.0016445069709300  0.0208354654091913
 -0.0272674315713157  0.6826380504743743  0.0237566443296062
  0.6683625207366735  0.3426020510906471  0.0097484524973272
  0.1624045151585828  0.8238812772165764  0.7589942064782788
  0.8418296202029562  0.5037503340689006  0.7401913330552647
  0.5012828683132143  0.1537773089286809  0.2391135806734297
  0.3504508033378147  0.6688506531489945  0.5105013648937289
  0.1868162154144037  0.8242986820031375  0.2306974130137494
  0.3387571953265264 -0.0032877056063487  0.5095280043034893
  0.6616627541098120  0.6746234555792405  0.0075709999699984
  0.6612972084910653  0.3370853205398566  0.4908053568074645
  0.1660888283771584  0.4992657291691301  0.7544610278806200
 -0.0014175659900524  0.0067595066071210  0.4837887778088982
  0.5086148458076977  0.1560322968766989  0.7595726186653143
  0.1668354802032456  0.1680000477013895  0.7545021348200678
  0.8352442136892446  0.5090538714714611  0.2739473737530402
 -0.0065789744647279  0.6722303311741423  0.4845339754114485
  0.8189651826210044  0.8437211627181889  0.7325324214546305
  0.3312529816175626  0.3314321877429509  0.5031039473987643
  0.3347157590861062  0.3322350302956277 -0.0160446606960575
  0.4869633918562243  0.5049942366850734  0.2435256149227833
  0.3377740091029429 -0.0002657008704330 -0.0142036316875946
  0.5127709623895121  0.8433219321610519  0.2533784461456983
  0.6646068740661890 -0.0131036166897346  0.4964833913664836
  0.5113308533253966  0.8362237936261590  0.7538167246851010
  0.8036888023109330  0.8419533304606854  0.2835071084288130
  0.0027767187454566  0.3193714254844269  0.0092542941137318
  0.6558846714865173  0.6746489027725899  0.5047655021870215
  0.6689197696812252 -0.0100181223738739  0.0101881869831264
  0.1728250873704662  0.1720064756228504  0.2375426063027024
  0.3542199114929583  0.6606451575144764 -0.0220503148869791
  0.8285533271377596  0.1564895422833706  0.2523848198008694
  0.5006385293438766  0.5042634507699293  0.7503429437213125
 
  0.00000000E+00  0.00000000E+00  0.00000000E+00
  0.00000000E+00  0.00000000E+00  0.00000000E+00
  0.00000000E+00  0.00000000E+00  0.00000000E+00
  0.00000000E+00  0.00000000E+00  0.00000000E+00
  0.00000000E+00  0.00000000E+00  0.00000000E+00
  0.00000000E+00  0.00000000E+00  0.00000000E+00
  0.00000000E+00  0.00000000E+00  0.00000000E+00
  0.00000000E+00  0.00000000E+00  0.00000000E+00
  0.00000000E+00  0.00000000E+00  0.00000000E+00
  0.00000000E+00  0.00000000E+00  0.00000000E+00
  0.00000000E+00  0.00000000E+00  0.00000000E+00
  0.00000000E+00  0.00000000E+00  0.00000000E+00
  0.00000000E+00  0.00000000E+00  0.00000000E+00
  0.00000000E+00  0.00000000E+00  0.00000000E+00
  0.00000000E+00  0.00000000E+00  0.00000000E+00
  0.00000000E+00  0.00000000E+00  0.00000000E+00
  0.00000000E+00  0.00000000E+00  0.00000000E+00
  0.00000000E+00  0.00000000E+00  0.00000000E+00
  0.00000000E+00  0.00000000E+00  0.00000000E+00
  0.00000000E+00  0.00000000E+00  0.00000000E+00
  0.00000000E+00  0.00000000E+00  0.00000000E+00
  0.00000000E+00  0.00000000E+00  0.00000000E+00
  0.00000000E+00  0.00000000E+00  0.00000000E+00
  0.00000000E+00  0.00000000E+00  0.00000000E+00
  0.00000000E+00  0.00000000E+00  0.00000000E+00
  0.00000000E+00  0.00000000E+00  0.00000000E+00
  0.00000000E+00  0.00000000E+00  0.00000000E+00
  0.00000000E+00  0.00000000E+00  0.00000000E+00
  0.00000000E+00  0.00000000E+00  0.00000000E+00
  0.00000000E+00  0.00000000E+00  0.00000000E+00
  0.00000000E+00  0.00000000E+00  0.00000000E+00
  0.00000000E+00  0.00000000E+00  0.00000000E+00
  0.00000000E+00  0.00000000E+00  0.00000000E+00
  0.00000000E+00  0.00000000E+00  0.00000000E+00
  0.00000000E+00  0.00000000E+00  0.00000000E+00
  0.00000000E+00  0.00000000E+00  0.00000000E+00
