title                                   
    1.000000000000000     
     9.9847550805129206   -0.0163515724698522   -0.0047052230385642
    -0.0163462945210545   10.0086032638357256   -0.0266458652602860
    -0.0031553040072269   -0.0177123231522408    6.7023869257943778
   Hf   Mo   Nb   Ta
     7     4    11    14
Direct
  0.3237400123159667  0.6748846291036915  0.4900066336552331
  0.3315321286230127  0.6629995208001642  0.0099538730913590
  0.6627109700800518  0.3360816752703131  0.0087040540420817
  0.5016125723925223  0.4886734740629507  0.7175845455816759
  0.6631107415328519  0.6656726165234190  0.0030724552889185
  0.5006107320353268  0.1609696303979252  0.7412547724185852
  0.0058537582916242  0.0007891437631126  0.4957044029757495
 -0.0018718122851642  0.3354212677060722 -0.0012906735270533
  0.3321593070307085 -0.0015613419251588  0.0007756319932599
  0.1665101855107438  0.8372504556515099  0.2409445978567946
  0.6767500210584442  0.3292030669752197  0.4916305372549320
  0.1525875840851984  0.4915513427792726  0.2437556682229171
  0.5021976635351038  0.4868884155096276  0.2799327475521897
  0.0008285646745276 -0.0011843739304147  0.0055003605444079
  0.8348771584127926  0.1740227299292386  0.2515460345001082
  0.3200649561413382  0.3237939917205535  0.4903818980303843
  0.8364571214571521  0.8321509176862734  0.7525585876887504
  0.1552500747329122  0.4940909711710949  0.7562080428371033
  0.1713185648206280  0.1671762798085774  0.7589843786824439
  0.6756365532507062 -0.0028899164582626  0.4976424089146766
  0.8318128516299298  0.8306099901220904  0.2539365526143832
  0.1706755000990232  0.1692726559134290  0.2349956563947667
  0.0020529912371172  0.6699920207455633  0.5025991942797430
  0.1699863340852286  0.8400942152992492  0.7649167266174959
  0.8349875500453497  0.1745124582320057  0.7497395296341961
  0.4961750033022318  0.8483571722244605  0.7533599920745382
  0.6760700053494177  0.0015178076878965  0.0013094685610502
  0.3246134286643769 -0.0057525969131399  0.4919867679519753
  0.3325908051899246  0.3363857070747522  0.0028630065075143
  0.4963243869537957  0.1582925609509245  0.2496582240109213
  0.8372773508678457  0.4963739073619365  0.7458878524605509
  0.6713186689603137  0.6729814979976229  0.5012301817800425
  0.0023896543651221  0.3308168526088446  0.5007458387201141
  0.8385630900033400  0.4988108198082039  0.2595594844482146
  0.0005096948225851  0.6710791789280086  0.0052265211169327
  0.5027158267279515  0.8506712554129718  0.2471340452230431
 
  0.00000000E+00  0.00000000E+00  0.00000000E+00
  0.00000000E+00  0.00000000E+00  0.00000000E+00
  0.00000000E+00  0.00000000E+00  0.00000000E+00
  0.00000000E+00  0.00000000E+00  0.00000000E+00
  0.00000000E+00  0.00000000E+00  0.00000000E+00
  0.00000000E+00  0.00000000E+00  0.00000000E+00
  0.00000000E+00  0.00000000E+00  0.00000000E+00
  0.00000000E+00  0.00000000E+00  0.00000000E+00
  0.00000000E+00  0.00000000E+00  0.00000000E+00
  0.00000000E+00  0.00000000E+00  0.00000000E+00
  0.00000000E+00  0.00000000E+00  0.00000000E+00
  0.00000000E+00  0.00000000E+00  0.00000000E+00
  0.00000000E+00  0.00000000E+00  0.00000000E+00
  0.00000000E+00  0.00000000E+00  0.00000000E+00
  0.00000000E+00  0.00000000E+00  0.00000000E+00
  0.00000000E+00  0.00000000E+00  0.00000000E+00
  0.00000000E+00  0.00000000E+00  0.00000000E+00
  0.00000000E+00  0.00000000E+00  0.00000000E+00
  0.00000000E+00  0.00000000E+00  0.00000000E+00
  0.00000000E+00  0.00000000E+00  0.00000000E+00
  0.00000000E+00  0.00000000E+00  0.00000000E+00
  0.00000000E+00  0.00000000E+00  0.00000000E+00
  0.00000000E+00  0.00000000E+00  0.00000000E+00
  0.00000000E+00  0.00000000E+00  0.00000000E+00
  0.00000000E+00  0.00000000E+00  0.00000000E+00
  0.00000000E+00  0.00000000E+00  0.00000000E+00
  0.00000000E+00  0.00000000E+00  0.00000000E+00
  0.00000000E+00  0.00000000E+00  0.00000000E+00
  0.00000000E+00  0.00000000E+00  0.00000000E+00
  0.00000000E+00  0.00000000E+00  0.00000000E+00
  0.00000000E+00  0.00000000E+00  0.00000000E+00
  0.00000000E+00  0.00000000E+00  0.00000000E+00
  0.00000000E+00  0.00000000E+00  0.00000000E+00
  0.00000000E+00  0.00000000E+00  0.00000000E+00
  0.00000000E+00  0.00000000E+00  0.00000000E+00
  0.00000000E+00  0.00000000E+00  0.00000000E+00
