title                                   
    1.000000000000000     
     9.7984550392009275    0.0145354579067909    0.0585183100008809
     0.0141968691000514    9.9241604956884153   -0.0020031720996206
     0.0389884042185986   -0.0015115537980926    6.5442538831692891
   Hf   Mo   Nb   W 
     9     9     9     9
Direct
  0.1733094631656070  0.8284017813521910  0.7591403599174983
  0.6577178030503665  0.0038241781447823 -0.0020693302794115
  0.8321227556030090  0.8316909565356715  0.7394415785943462
  0.8340755406036311  0.8305759426815307  0.2604983232758336
  0.3377475830205602  0.0104708567940420  0.4922644051510500
  0.0131897186816497  0.0142232790104564  0.5084027088601898
 -0.0047209042313424  0.6462532193391783 -0.0036061826037376
  0.1708048912984227  0.8300913316396232  0.2399205181413698
  0.8330425031359470  0.1714748174781010  0.2580133538082741
  0.3363379859349151  0.6589208608952981 -0.0025139779515731
  0.4978792613935226  0.5011129401577665  0.2540861593352350
  0.6565643577825196  0.0042080903826124  0.5064176926909073
  0.3422785549101282  0.0057974344104731 -0.0016945081398992
  0.1694384083844108  0.4966054788102731  0.7430455512800370
  0.0027573508612872  0.3330412201271852  0.5053536357107233
  0.0011003863463998  0.0154784169282585 -0.0045245133837234
  0.6647657763762941  0.3365066247573691  0.5012512689447016
  0.4993227387245300  0.1756563629461777  0.2506722765169829
  0.8286928849671833  0.4938569103307459  0.7408224972837471
  0.6632304381402531  0.6595790265464628  0.0014914064531511
  0.3314418658003845  0.3348226803121485  0.0035540619436799
  0.6628930837661611  0.3325029171791307  0.0022486692181355
  0.4978497814633566  0.5007843134518669  0.7441463640975393
  0.5001380005803806  0.1734060401011940  0.7463056656237781
  0.4973747605901361  0.8250344760411290  0.2475249920881564
  0.1680486668162277  0.1745627441966784  0.7609636886288222
  0.1692357727271722  0.4976971595218648  0.2552827845612267
  0.6612118242153828  0.6603259704847847  0.4982574708365033
  0.3337214643133965  0.3346993261846042  0.4954883820430919
  0.8292358754612130  0.4920151459068455  0.2603297933429207
 -0.0003513263170985  0.3376791346725629  0.0007828446293416
  0.4983505430893392  0.8251707521933083  0.7437463812147216
  0.1649020024729009  0.1778716533366893  0.2434799011104222
  0.0021228170683283  0.6500691497754000  0.5008390129461746
  0.3390299498736642  0.6609852215872410  0.4979822792112739
  0.8351374199297604  0.1746035857863523  0.7526544848985122
 
  0.00000000E+00  0.00000000E+00  0.00000000E+00
  0.00000000E+00  0.00000000E+00  0.00000000E+00
  0.00000000E+00  0.00000000E+00  0.00000000E+00
  0.00000000E+00  0.00000000E+00  0.00000000E+00
  0.00000000E+00  0.00000000E+00  0.00000000E+00
  0.00000000E+00  0.00000000E+00  0.00000000E+00
  0.00000000E+00  0.00000000E+00  0.00000000E+00
  0.00000000E+00  0.00000000E+00  0.00000000E+00
  0.00000000E+00  0.00000000E+00  0.00000000E+00
  0.00000000E+00  0.00000000E+00  0.00000000E+00
  0.00000000E+00  0.00000000E+00  0.00000000E+00
  0.00000000E+00  0.00000000E+00  0.00000000E+00
  0.00000000E+00  0.00000000E+00  0.00000000E+00
  0.00000000E+00  0.00000000E+00  0.00000000E+00
  0.00000000E+00  0.00000000E+00  0.00000000E+00
  0.00000000E+00  0.00000000E+00  0.00000000E+00
  0.00000000E+00  0.00000000E+00  0.00000000E+00
  0.00000000E+00  0.00000000E+00  0.00000000E+00
  0.00000000E+00  0.00000000E+00  0.00000000E+00
  0.00000000E+00  0.00000000E+00  0.00000000E+00
  0.00000000E+00  0.00000000E+00  0.00000000E+00
  0.00000000E+00  0.00000000E+00  0.00000000E+00
  0.00000000E+00  0.00000000E+00  0.00000000E+00
  0.00000000E+00  0.00000000E+00  0.00000000E+00
  0.00000000E+00  0.00000000E+00  0.00000000E+00
  0.00000000E+00  0.00000000E+00  0.00000000E+00
  0.00000000E+00  0.00000000E+00  0.00000000E+00
  0.00000000E+00  0.00000000E+00  0.00000000E+00
  0.00000000E+00  0.00000000E+00  0.00000000E+00
  0.00000000E+00  0.00000000E+00  0.00000000E+00
  0.00000000E+00  0.00000000E+00  0.00000000E+00
  0.00000000E+00  0.00000000E+00  0.00000000E+00
  0.00000000E+00  0.00000000E+00  0.00000000E+00
  0.00000000E+00  0.00000000E+00  0.00000000E+00
  0.00000000E+00  0.00000000E+00  0.00000000E+00
  0.00000000E+00  0.00000000E+00  0.00000000E+00
