title                                   
    1.000000000000000     
     9.5444954185130371    0.0306047543635196   -0.0232821083149548
     0.0305420457292711    9.5150649943936276   -0.0311002212738527
    -0.0152891541857366   -0.0206881688367232    6.3055261979301847
   Nb   Ti   V    W    Zr
     3     3    15    11     4
Direct
  0.8232202458537575  0.8313518458461436  0.7503089726183684
  0.0031478781969987  0.0006634472256275  0.5132737168246759
  0.1747443300205852  0.4969716992737329  0.7535959319137820
  0.1744140252943017  0.8158638009313574  0.2490922748156698
  0.8138103751138452  0.1658405993275648  0.2488489781543609
  0.0007085637386287  0.6496523063662967 -0.0032902298118330
  0.6473996666720646  0.0045284956655275  0.5134877199234954
  0.8274681368787556  0.4986339575883837  0.7483559512587393
  0.4961123256467392  0.8256114356036011  0.2415797569593753
  0.3394683008286044  0.3325011025456686  0.4955347426339867
  0.1864193074525486  0.1770366523403804  0.7711056799607948
  0.5049333515877051  0.1734157979229813  0.2433116193304409
  0.6390717933534485  0.0048674135554882 -0.0139783462996512
  0.5002498204982536  0.1710598919403791  0.7564299771822480
  0.0002516223722843  0.3391070694861953 -0.0001941480153792
  0.3418667294140678  0.0003868261827555 -0.0036980859999034
  0.1899291142597636  0.1869271303052759  0.2337339842670327
  0.4977251820019746  0.5004928042782619  0.2482143096356925
  0.4984436717027508  0.8301560132712763  0.7548814458757405
  0.3352184187401914  0.6669897937789516 -0.0007469924703416
  0.1770641467185378  0.5023103288729598  0.2478007082753383
 -0.0000114425436995  0.6578079413474639  0.5035473019334932
  0.3401011193102980  0.3350804862571880  0.0046646089480131
  0.5009204168658901  0.4995243657954963  0.7483196388797538
  0.6592456974077925  0.6629434478805939 -0.0029077149742601
  0.1746500316690955  0.8250525537743791  0.7524569410666184
  0.8275217345392630  0.4975158409221959  0.2479871940911060
  0.6596924690241608  0.6636570733558886  0.5003163284349036
  0.6638858201900812  0.3329800249999205 -0.0017509498634895
  0.8193132471750129  0.1680216296858730  0.7518966380864422
  0.3372842603475457  0.6648254886778326  0.4977806294588044
  0.6633200642165533  0.3333658334517622  0.5000543235536675
  0.0072654692000976  0.3260067949906241  0.4956133908793992
  0.8222536507174780  0.8371931812806602  0.2524100542664048
  0.0155448956736215  0.0155306825417966  0.0075058512065229
  0.3373455598610011  0.0061262427295173  0.4944577969999876
 
  0.00000000E+00  0.00000000E+00  0.00000000E+00
  0.00000000E+00  0.00000000E+00  0.00000000E+00
  0.00000000E+00  0.00000000E+00  0.00000000E+00
  0.00000000E+00  0.00000000E+00  0.00000000E+00
  0.00000000E+00  0.00000000E+00  0.00000000E+00
  0.00000000E+00  0.00000000E+00  0.00000000E+00
  0.00000000E+00  0.00000000E+00  0.00000000E+00
  0.00000000E+00  0.00000000E+00  0.00000000E+00
  0.00000000E+00  0.00000000E+00  0.00000000E+00
  0.00000000E+00  0.00000000E+00  0.00000000E+00
  0.00000000E+00  0.00000000E+00  0.00000000E+00
  0.00000000E+00  0.00000000E+00  0.00000000E+00
  0.00000000E+00  0.00000000E+00  0.00000000E+00
  0.00000000E+00  0.00000000E+00  0.00000000E+00
  0.00000000E+00  0.00000000E+00  0.00000000E+00
  0.00000000E+00  0.00000000E+00  0.00000000E+00
  0.00000000E+00  0.00000000E+00  0.00000000E+00
  0.00000000E+00  0.00000000E+00  0.00000000E+00
  0.00000000E+00  0.00000000E+00  0.00000000E+00
  0.00000000E+00  0.00000000E+00  0.00000000E+00
  0.00000000E+00  0.00000000E+00  0.00000000E+00
  0.00000000E+00  0.00000000E+00  0.00000000E+00
  0.00000000E+00  0.00000000E+00  0.00000000E+00
  0.00000000E+00  0.00000000E+00  0.00000000E+00
  0.00000000E+00  0.00000000E+00  0.00000000E+00
  0.00000000E+00  0.00000000E+00  0.00000000E+00
  0.00000000E+00  0.00000000E+00  0.00000000E+00
  0.00000000E+00  0.00000000E+00  0.00000000E+00
  0.00000000E+00  0.00000000E+00  0.00000000E+00
  0.00000000E+00  0.00000000E+00  0.00000000E+00
  0.00000000E+00  0.00000000E+00  0.00000000E+00
  0.00000000E+00  0.00000000E+00  0.00000000E+00
  0.00000000E+00  0.00000000E+00  0.00000000E+00
  0.00000000E+00  0.00000000E+00  0.00000000E+00
  0.00000000E+00  0.00000000E+00  0.00000000E+00
  0.00000000E+00  0.00000000E+00  0.00000000E+00
