title                                   
    1.000000000000000     
     9.6349612867091281   -0.0407710329529338    0.0659443695086951
    -0.0425081340661329    9.8730123062687607   -0.0243346650704624
     0.0465060362284688   -0.0158822473437306    6.5686891537236409
   Ta   Ti   V    Zr
     4    14    11     7
Direct
 -0.0074399208023740  0.6707060178143075 -0.0405193641246064
  0.4917940694789252  0.8523074006134135  0.7548487279521877
  0.3441002232942423  0.6651165758796218  0.0150008140905610
  0.8236908297152762  0.8390674142122179  0.7403949870384673
  0.5121981755535452  0.4751626718176437  0.7278667991187807
  0.6676695884707560  0.0106116678415823  0.0069449948620549
  0.1693442295959636  0.8392682873940037  0.2351729140164729
  0.4888494894362533  0.1628184478311076  0.7680606619153272
  0.6491963275614373  0.6835550907166010  0.4962588172782187
  0.6580180851437205  0.0053289322654612  0.4922056512186295
  0.1478214091174310  0.5123690674912162  0.2191014362691577
  0.3292978659716489  0.0242889700650012  0.4763011943884685
  0.6630727540309225  0.3177970425046223  0.0182862210384473
  0.3344855473394493  0.3219746142503422  0.4885720953966028
  0.1671363075503035  0.4948659873625646  0.7789365263304062
  0.8239832624808054  0.4886798705708006  0.7385762122791186
  0.6735360507604836  0.2885327028217182  0.4834955564755406
  0.3421125445988198  0.3399376762046611  0.0380547973678649
  0.8424575679142264  0.1758545164033893  0.7774160345020491
  0.1684207317428335  0.1748997807215784  0.7971940907320701
 -0.0024982717137433  0.3199618206390165 -0.0104085443063113
  0.5171505562281175  0.4740894543200901  0.2917395740885868
  0.4809733922964962  0.8567386939989178  0.2484213610669057
 -0.0075533327786440  0.0167194153651377 -0.0104668342047754
  0.4937208238488446  0.1552895563626683  0.2308458072707232
  0.8522769420905407  0.1685840562526643  0.2064234014080298
 -0.0020940372091523  0.6599345052972299  0.5420223163028918
  0.1653138073980801  0.1606050797929718  0.1903739814790365
  0.3439688644007714  0.0046301669859484  0.0280862926129583
  0.0211449108881800  0.3273276412312985  0.4984990000679808
  0.3374071008651456  0.6533044144369706  0.4877616938848515
  0.1763296745452599  0.8501632677616375  0.7542994469413530
  0.8341867990166641  0.4955056159048780  0.2610633617191003
  0.0034160202985802  0.0261350676688083  0.4977141281067258
  0.6474156614897743  0.6589021517866103  0.0104349466774579
  0.8490959493804182  0.8289663574132968  0.2610208987386670
 
  0.00000000E+00  0.00000000E+00  0.00000000E+00
  0.00000000E+00  0.00000000E+00  0.00000000E+00
  0.00000000E+00  0.00000000E+00  0.00000000E+00
  0.00000000E+00  0.00000000E+00  0.00000000E+00
  0.00000000E+00  0.00000000E+00  0.00000000E+00
  0.00000000E+00  0.00000000E+00  0.00000000E+00
  0.00000000E+00  0.00000000E+00  0.00000000E+00
  0.00000000E+00  0.00000000E+00  0.00000000E+00
  0.00000000E+00  0.00000000E+00  0.00000000E+00
  0.00000000E+00  0.00000000E+00  0.00000000E+00
  0.00000000E+00  0.00000000E+00  0.00000000E+00
  0.00000000E+00  0.00000000E+00  0.00000000E+00
  0.00000000E+00  0.00000000E+00  0.00000000E+00
  0.00000000E+00  0.00000000E+00  0.00000000E+00
  0.00000000E+00  0.00000000E+00  0.00000000E+00
  0.00000000E+00  0.00000000E+00  0.00000000E+00
  0.00000000E+00  0.00000000E+00  0.00000000E+00
  0.00000000E+00  0.00000000E+00  0.00000000E+00
  0.00000000E+00  0.00000000E+00  0.00000000E+00
  0.00000000E+00  0.00000000E+00  0.00000000E+00
  0.00000000E+00  0.00000000E+00  0.00000000E+00
  0.00000000E+00  0.00000000E+00  0.00000000E+00
  0.00000000E+00  0.00000000E+00  0.00000000E+00
  0.00000000E+00  0.00000000E+00  0.00000000E+00
  0.00000000E+00  0.00000000E+00  0.00000000E+00
  0.00000000E+00  0.00000000E+00  0.00000000E+00
  0.00000000E+00  0.00000000E+00  0.00000000E+00
  0.00000000E+00  0.00000000E+00  0.00000000E+00
  0.00000000E+00  0.00000000E+00  0.00000000E+00
  0.00000000E+00  0.00000000E+00  0.00000000E+00
  0.00000000E+00  0.00000000E+00  0.00000000E+00
  0.00000000E+00  0.00000000E+00  0.00000000E+00
  0.00000000E+00  0.00000000E+00  0.00000000E+00
  0.00000000E+00  0.00000000E+00  0.00000000E+00
  0.00000000E+00  0.00000000E+00  0.00000000E+00
  0.00000000E+00  0.00000000E+00  0.00000000E+00
