title                                   
    1.000000000000000     
     9.8027228420945054   -0.0108751316872768   -0.0110921967126469
    -0.0109000283663835    9.7735283077153010   -0.0000828601610888
    -0.0074190408747526   -0.0000665494050717    6.5765225973641321
   Nb   Ta   Ti   V 
    11    14     7     4
Direct
 -0.0028139663976623  0.6711535954954727  0.0036718438983510
  0.8322939107894811  0.1644699998011928  0.2619610109239560
  0.3315884715680585  0.0004995387881137  0.5014129127913445
  0.3304970068744011  0.3292701690073525  0.0016998634355192
  0.6662635568607107  0.6695907578197037  0.0033522110435613
  0.0015670712262338  0.3331115547929075  0.5008772160319330
  0.1662911428886873  0.1618363551486112  0.2555624200189501
  0.1619837495037225  0.8348193546569542  0.7491461223846136
  0.8333390625810885  0.1614805918367699  0.7432126554556115
  0.6702397908959161 -0.0029275419672190  0.4980512588360429
  0.5007805452756686  0.8301692187210699  0.7506234919146206
  0.1677062435396936  0.5026742694156366  0.7634313255319062
  0.5023834623534393  0.1717939529447955  0.2578452049458986
 -0.0033211978729410 -0.0002187799038364  0.0100578794608979
  0.4947357766831422  0.8295116457332428  0.2469400922965424
  0.8307138307434964  0.4993408137694192  0.2548261812412973
 -0.0026986269677869  0.6717935001676462  0.4963513729369646
  0.3358192831321106  0.6573784432148483  0.5058824420730713
  0.5014539960392501  0.1738870600153886  0.7422559428101774
  0.3338309884685720 -0.0017577758272392 -0.0025180560577796
  0.6658371921540510  0.6666449315979396  0.4949620318003830
  0.1651339346572792  0.1657960264744058  0.7461205126293404
 -0.0053819729682123  0.3299120451309135  0.0026294275601613
  0.8283523087217192  0.5006429312796817  0.7467405514390828
  0.6686765221673049  0.0010599771374669  0.0047425007114924
  0.5029907522433781  0.4956791895448145  0.7626435141066852
  0.6762684161384142  0.3245912310441487  0.0003296332679124
  0.5006796213000523  0.4995405761976975  0.2326692702898968
  0.1683118946586718  0.8290775358437682  0.2494750878244784
  0.1686715735554509  0.5130709620561363  0.2322964277712599
  0.8365075194773187  0.8349572952571885  0.7460025600323250
  0.3315598820363044  0.3438483537790484  0.4964983571558404
  0.3355271391370053  0.6770142876569489 -0.0139315707105617
 -0.0027567233687173 -0.0050925365570289  0.4943152088365246
  0.6682262666794403  0.3311027506523714  0.5015926636514910
  0.8387415752252578  0.8342777192736684  0.2582704316602086
 
  0.00000000E+00  0.00000000E+00  0.00000000E+00
  0.00000000E+00  0.00000000E+00  0.00000000E+00
  0.00000000E+00  0.00000000E+00  0.00000000E+00
  0.00000000E+00  0.00000000E+00  0.00000000E+00
  0.00000000E+00  0.00000000E+00  0.00000000E+00
  0.00000000E+00  0.00000000E+00  0.00000000E+00
  0.00000000E+00  0.00000000E+00  0.00000000E+00
  0.00000000E+00  0.00000000E+00  0.00000000E+00
  0.00000000E+00  0.00000000E+00  0.00000000E+00
  0.00000000E+00  0.00000000E+00  0.00000000E+00
  0.00000000E+00  0.00000000E+00  0.00000000E+00
  0.00000000E+00  0.00000000E+00  0.00000000E+00
  0.00000000E+00  0.00000000E+00  0.00000000E+00
  0.00000000E+00  0.00000000E+00  0.00000000E+00
  0.00000000E+00  0.00000000E+00  0.00000000E+00
  0.00000000E+00  0.00000000E+00  0.00000000E+00
  0.00000000E+00  0.00000000E+00  0.00000000E+00
  0.00000000E+00  0.00000000E+00  0.00000000E+00
  0.00000000E+00  0.00000000E+00  0.00000000E+00
  0.00000000E+00  0.00000000E+00  0.00000000E+00
  0.00000000E+00  0.00000000E+00  0.00000000E+00
  0.00000000E+00  0.00000000E+00  0.00000000E+00
  0.00000000E+00  0.00000000E+00  0.00000000E+00
  0.00000000E+00  0.00000000E+00  0.00000000E+00
  0.00000000E+00  0.00000000E+00  0.00000000E+00
  0.00000000E+00  0.00000000E+00  0.00000000E+00
  0.00000000E+00  0.00000000E+00  0.00000000E+00
  0.00000000E+00  0.00000000E+00  0.00000000E+00
  0.00000000E+00  0.00000000E+00  0.00000000E+00
  0.00000000E+00  0.00000000E+00  0.00000000E+00
  0.00000000E+00  0.00000000E+00  0.00000000E+00
  0.00000000E+00  0.00000000E+00  0.00000000E+00
  0.00000000E+00  0.00000000E+00  0.00000000E+00
  0.00000000E+00  0.00000000E+00  0.00000000E+00
  0.00000000E+00  0.00000000E+00  0.00000000E+00
  0.00000000E+00  0.00000000E+00  0.00000000E+00
