title                                   
    1.000000000000000     
     9.7921354883062985    0.0413360181959177   -0.0329981312008575
     0.0413562259755181    9.7746406598980933   -0.0119796417011913
    -0.0220248069292905   -0.0079980826766362    6.4997149610079434
   Mo   Nb   Ta
    12    12    12
Direct
  0.5032921918817490  0.8353346070951021  0.2515974731236118
  0.8302698961389177  0.1639853284064431  0.7499810860426971
 -0.0019986195403805  0.6661197387539740 -0.0038425452772319
  0.6660302084025459  0.6662231568511688 -0.0014610799680977
  0.6667545470080102  0.6667620222060104  0.4997806961524229
  0.3348319526520920 -0.0008299334762103  0.4991183537417032
 -0.0018003980771365  0.6669594906875734  0.5033062434769539
  0.1654743813752944  0.8332198101404698  0.7485881187661103
  0.6700014740067440  0.3329037684782654 -0.0016790816937417
  0.6668637710771662 -0.0021815436545811 -0.0011738223166549
  0.8323129499623343  0.5025073249311611  0.7513948924605033
  0.6669162664500122 -0.0015704136162548  0.4990652762196832
  0.1619692465115302  0.5044263580490337  0.7495117149245891
 -0.0004582737952064 -0.0016972135512735  0.5038952021967577
  0.5068010159504593  0.5022348148482632  0.7530880807559227
  0.5052186576765072  0.1635095747767749  0.2509282546608941
  0.6698851411436887  0.3337117651191192  0.5050889429439657
  0.5056398857606766  0.5033845736226970  0.2492205150789311
  0.1628789657769731  0.8313191451445299  0.2553250379899694
  0.1678899055597733  0.1658664560228604  0.2538426994629360
  0.8300920532600153  0.8282995056784617  0.7486801794163283
  0.5057018636363813  0.8361467196061668  0.7466186319405634
 -0.0038559652104299  0.3328144691210613  0.5044851046368716
  0.3336524547348190  0.6711467348352896  0.5007771865337927
  0.1722712247972464  0.1645683464745858  0.7458433692030032
  0.5040592217472132  0.1621457832491982  0.7513119672534870
 -0.0037297138547017  0.3304699713985874 -0.0070384639065701
  0.1586007947107117  0.5059737560776211  0.2503969189380770
  0.8273936580324263  0.1634122120636499  0.2476403582924619
  0.0006361844862925 -0.0006830570178729 -0.0056527353014680
  0.8316424576962134  0.5045874415072858  0.2471095276969415
  0.3331736622868181 -0.0049562832807265  0.0032811605721380
  0.3336871593885286  0.6729870080839918  0.0007653211791125
  0.3333035584023503  0.3352842822270576  0.0020133208226249
  0.8288665771225643  0.8289698191389122  0.2486092308024943
  0.3357316428418008  0.3366444600016027  0.4995828631782159
 
  0.00000000E+00  0.00000000E+00  0.00000000E+00
  0.00000000E+00  0.00000000E+00  0.00000000E+00
  0.00000000E+00  0.00000000E+00  0.00000000E+00
  0.00000000E+00  0.00000000E+00  0.00000000E+00
  0.00000000E+00  0.00000000E+00  0.00000000E+00
  0.00000000E+00  0.00000000E+00  0.00000000E+00
  0.00000000E+00  0.00000000E+00  0.00000000E+00
  0.00000000E+00  0.00000000E+00  0.00000000E+00
  0.00000000E+00  0.00000000E+00  0.00000000E+00
  0.00000000E+00  0.00000000E+00  0.00000000E+00
  0.00000000E+00  0.00000000E+00  0.00000000E+00
  0.00000000E+00  0.00000000E+00  0.00000000E+00
  0.00000000E+00  0.00000000E+00  0.00000000E+00
  0.00000000E+00  0.00000000E+00  0.00000000E+00
  0.00000000E+00  0.00000000E+00  0.00000000E+00
  0.00000000E+00  0.00000000E+00  0.00000000E+00
  0.00000000E+00  0.00000000E+00  0.00000000E+00
  0.00000000E+00  0.00000000E+00  0.00000000E+00
  0.00000000E+00  0.00000000E+00  0.00000000E+00
  0.00000000E+00  0.00000000E+00  0.00000000E+00
  0.00000000E+00  0.00000000E+00  0.00000000E+00
  0.00000000E+00  0.00000000E+00  0.00000000E+00
  0.00000000E+00  0.00000000E+00  0.00000000E+00
  0.00000000E+00  0.00000000E+00  0.00000000E+00
  0.00000000E+00  0.00000000E+00  0.00000000E+00
  0.00000000E+00  0.00000000E+00  0.00000000E+00
  0.00000000E+00  0.00000000E+00  0.00000000E+00
  0.00000000E+00  0.00000000E+00  0.00000000E+00
  0.00000000E+00  0.00000000E+00  0.00000000E+00
  0.00000000E+00  0.00000000E+00  0.00000000E+00
  0.00000000E+00  0.00000000E+00  0.00000000E+00
  0.00000000E+00  0.00000000E+00  0.00000000E+00
  0.00000000E+00  0.00000000E+00  0.00000000E+00
  0.00000000E+00  0.00000000E+00  0.00000000E+00
  0.00000000E+00  0.00000000E+00  0.00000000E+00
  0.00000000E+00  0.00000000E+00  0.00000000E+00
