title                                   
    1.000000000000000     
     9.5392985747322854    0.0182023816760383   -0.0042874144460556
     0.0181952246294025    9.5416259923377922    0.0113125691298976
    -0.0028780015992970    0.0075421662237920    6.3614276967103960
   Nb   Ti   V    W 
     9     9     9     9
Direct
  0.6685103910899355  0.3343437948652749 -0.0035175314586940
 -0.0070555588370282  0.6731775752914794 -0.0033215106743625
  0.4978823565084778  0.4952845247720462  0.2553376394379933
  0.3375389545671693  0.6665512354151368  0.5044761853496338
  0.5036679407035677  0.1639132556759883  0.2512441422566766
  0.0006091473483361  0.3259306581661306  0.5028087829944469
  0.6654581930981547  0.6697576834489791  0.5068548487578917
  0.1667363099175232  0.4943140663162023  0.7588379484687191
  0.1669127079473157  0.8342397765554876  0.7453358083076250
 -0.0035861388074497  0.0055090549303890  0.0018404089116942
  0.5019246865069527  0.1605027569486797  0.7493667897409129
  0.3455307529638793  0.6732523852502921  0.0004541490852499
  0.1614206938940345  0.4979227074307460  0.2418854708112130
  0.8423184637682948  0.4979377972812096  0.2510490410661362
  0.3304818096602399 -0.0023583040900251  0.0017592716697810
 -0.0034464988078110  0.0026774320575051  0.4954774982314307
  0.3324632970797658  0.3294179571362740  0.5068509341670510
  0.6614964120521578  0.6735397025110825 -0.0053275926335862
  0.6724105075703363 -0.0067119799016647 -0.0003580133375196
  0.5098864994486721  0.8531778464961918  0.7449872081365450
  0.6726479309545134 -0.0010401931001791  0.4997530375173422
  0.8227757948639717  0.8390463136852753  0.7445687734500850
  0.0000798065497519  0.3214787655176607 -0.0047066527340337
  0.3262543609227128  0.3243294376296828 -0.0012935651142739
  0.5041539792895766  0.4877384969061569  0.7484478554927523
  0.1716549028053640  0.1710987864032093  0.7555014316531762
  0.6695858311203505  0.3309114843442190  0.5070574793055692
 -0.0034834382184884  0.6724102248094389  0.4997337149216028
  0.1682255709169573  0.1716867864328452  0.2432881812410982
  0.8294431049904558  0.8350545211881073  0.2524141712894731
  0.1664348718650164  0.8304360572103360  0.2528127901166575
  0.8325204851660842  0.4988952371368440  0.7466923393208388
  0.8284825685206624  0.1688235608713456  0.2485562647926454
  0.8263489149682263  0.1639684150699635  0.7489231102382663
  0.5033113313532057  0.8408141364878100  0.2553016444388982
  0.3304030562591158  0.0019680428498803  0.4969079447810648
 
  0.00000000E+00  0.00000000E+00  0.00000000E+00
  0.00000000E+00  0.00000000E+00  0.00000000E+00
  0.00000000E+00  0.00000000E+00  0.00000000E+00
  0.00000000E+00  0.00000000E+00  0.00000000E+00
  0.00000000E+00  0.00000000E+00  0.00000000E+00
  0.00000000E+00  0.00000000E+00  0.00000000E+00
  0.00000000E+00  0.00000000E+00  0.00000000E+00
  0.00000000E+00  0.00000000E+00  0.00000000E+00
  0.00000000E+00  0.00000000E+00  0.00000000E+00
  0.00000000E+00  0.00000000E+00  0.00000000E+00
  0.00000000E+00  0.00000000E+00  0.00000000E+00
  0.00000000E+00  0.00000000E+00  0.00000000E+00
  0.00000000E+00  0.00000000E+00  0.00000000E+00
  0.00000000E+00  0.00000000E+00  0.00000000E+00
  0.00000000E+00  0.00000000E+00  0.00000000E+00
  0.00000000E+00  0.00000000E+00  0.00000000E+00
  0.00000000E+00  0.00000000E+00  0.00000000E+00
  0.00000000E+00  0.00000000E+00  0.00000000E+00
  0.00000000E+00  0.00000000E+00  0.00000000E+00
  0.00000000E+00  0.00000000E+00  0.00000000E+00
  0.00000000E+00  0.00000000E+00  0.00000000E+00
  0.00000000E+00  0.00000000E+00  0.00000000E+00
  0.00000000E+00  0.00000000E+00  0.00000000E+00
  0.00000000E+00  0.00000000E+00  0.00000000E+00
  0.00000000E+00  0.00000000E+00  0.00000000E+00
  0.00000000E+00  0.00000000E+00  0.00000000E+00
  0.00000000E+00  0.00000000E+00  0.00000000E+00
  0.00000000E+00  0.00000000E+00  0.00000000E+00
  0.00000000E+00  0.00000000E+00  0.00000000E+00
  0.00000000E+00  0.00000000E+00  0.00000000E+00
  0.00000000E+00  0.00000000E+00  0.00000000E+00
  0.00000000E+00  0.00000000E+00  0.00000000E+00
  0.00000000E+00  0.00000000E+00  0.00000000E+00
  0.00000000E+00  0.00000000E+00  0.00000000E+00
  0.00000000E+00  0.00000000E+00  0.00000000E+00
  0.00000000E+00  0.00000000E+00  0.00000000E+00
