title                                   
    1.000000000000000     
     9.5567562133826200    0.0428313491898361   -0.0154458754654911
     0.0427015837167102    9.4314593258951120   -0.0366143821296196
    -0.0101514121638910   -0.0244356616694555    6.3035361478780709
   Hf   Mo   V    W    Zr
     3    11    15     4     3
Direct
  0.0038185602721300 -0.0060614719870404 -0.0040772968694804
  0.5012511318807772  0.8388740455829682  0.7482527678152106
 -0.0048936582487606  0.6686095292416812 -0.0129081590618533
  0.8239194230431037  0.1635345505570042  0.7486781329957720
  0.3409971432917807  0.3305802640172035 -0.0031284475279138
  0.1723597672404766  0.8303615456687847  0.7406839251529180
  0.3285962575616085  0.0057416753722753  0.4973802558019844
  0.6623374043709770  0.3386535308575592 -0.0069155568882299
  0.6654574923097939  0.0026365662997374 -0.0009476143094688
  0.0008774988272804  0.3300479886416655 -0.0117840781503012
  0.3287930962280868  0.0043137810670733  0.0075512188010537
  0.8254112451132642  0.5050934369043625  0.2514376131786701
  0.6616197457413735  0.3395818329366613  0.5060946096506735
  0.4991610778191671  0.8357447118814477  0.2515126927974198
  0.8175490227728607  0.5036320074365191  0.7450378251667897
  0.6667272089737033 -0.0007817242480824  0.4957135649668670
  0.0024955056451324 -0.0130276366647268  0.5054564879651359
 -0.0124985902078975  0.6751639435317907  0.4997276256263867
  0.5017235318278829  0.5005138861518592  0.7520818154832198
  0.1802199571889116  0.1656682036159111  0.7554073863930693
  0.8179898623216333  0.8308070050588651  0.7277751952370530
  0.4986009862972199  0.1696254704355397  0.7525104879916673
  0.4998123783668609  0.1701633246263023  0.2478309937719550
  0.3344593220891140  0.6683688006639574  0.0017274682519751
  0.1728527556298791  0.8329726986511959  0.2614134811877089
  0.8236010134849209  0.8337829812055005  0.2662709839120451
  0.1843790257349517  0.1600923676762721  0.2514230614937270
  0.1867555465834823  0.4931105535774787  0.7577164478988212
  0.6706309714871569  0.6667040308089728  0.4936845807872364
  0.3345592990476853  0.6656358869281320  0.5006458880029196
  0.3419244142987007  0.3288184638660421  0.5079687005763388
  0.5001160141208972  0.5017408078486996  0.2483539271719413
  0.6689980745869394  0.6659937183360314  0.0020867516269948
  0.0033831764780079  0.3310553206012443  0.5149506684145009
  0.1697729746990508  0.4981207551379750  0.2481031098300230
  0.8262413631218478  0.1641271477131342  0.2522834848571685
 
  0.00000000E+00  0.00000000E+00  0.00000000E+00
  0.00000000E+00  0.00000000E+00  0.00000000E+00
  0.00000000E+00  0.00000000E+00  0.00000000E+00
  0.00000000E+00  0.00000000E+00  0.00000000E+00
  0.00000000E+00  0.00000000E+00  0.00000000E+00
  0.00000000E+00  0.00000000E+00  0.00000000E+00
  0.00000000E+00  0.00000000E+00  0.00000000E+00
  0.00000000E+00  0.00000000E+00  0.00000000E+00
  0.00000000E+00  0.00000000E+00  0.00000000E+00
  0.00000000E+00  0.00000000E+00  0.00000000E+00
  0.00000000E+00  0.00000000E+00  0.00000000E+00
  0.00000000E+00  0.00000000E+00  0.00000000E+00
  0.00000000E+00  0.00000000E+00  0.00000000E+00
  0.00000000E+00  0.00000000E+00  0.00000000E+00
  0.00000000E+00  0.00000000E+00  0.00000000E+00
  0.00000000E+00  0.00000000E+00  0.00000000E+00
  0.00000000E+00  0.00000000E+00  0.00000000E+00
  0.00000000E+00  0.00000000E+00  0.00000000E+00
  0.00000000E+00  0.00000000E+00  0.00000000E+00
  0.00000000E+00  0.00000000E+00  0.00000000E+00
  0.00000000E+00  0.00000000E+00  0.00000000E+00
  0.00000000E+00  0.00000000E+00  0.00000000E+00
  0.00000000E+00  0.00000000E+00  0.00000000E+00
  0.00000000E+00  0.00000000E+00  0.00000000E+00
  0.00000000E+00  0.00000000E+00  0.00000000E+00
  0.00000000E+00  0.00000000E+00  0.00000000E+00
  0.00000000E+00  0.00000000E+00  0.00000000E+00
  0.00000000E+00  0.00000000E+00  0.00000000E+00
  0.00000000E+00  0.00000000E+00  0.00000000E+00
  0.00000000E+00  0.00000000E+00  0.00000000E+00
  0.00000000E+00  0.00000000E+00  0.00000000E+00
  0.00000000E+00  0.00000000E+00  0.00000000E+00
  0.00000000E+00  0.00000000E+00  0.00000000E+00
  0.00000000E+00  0.00000000E+00  0.00000000E+00
  0.00000000E+00  0.00000000E+00  0.00000000E+00
  0.00000000E+00  0.00000000E+00  0.00000000E+00
