title                                   
    1.000000000000000     
    10.0757106930415397   -0.0041803693693299   -0.0691512600553460
    -0.0042676205809877   10.0337282108679311   -0.0619730359014201
    -0.0458580053224756   -0.0411639230451642    6.6237477327265983
   Mo   Nb   Zr
    12    12    12
Direct
  0.8428682122544968  0.8246793816482486  0.2479080560668891
  0.6678028606501083  0.3473761286346742  0.0063410133697207
  0.5114809513691524  0.4908778836453951  0.7475804454956874
  0.6680459645514210  0.3478286381209875  0.5005076326124875
  0.1597869040205260  0.1721169138172141  0.2535192845355881
  0.3201412716947227  0.0039690528295378  0.5078220248027581
  0.1602167557424279  0.1715117947423813  0.7459237500194816
  0.6760882811671849  0.6618727715268290  0.5034479876274317
  0.8403750121948056  0.8237247924945903  0.7460258399937858
 -0.0126174872573297  0.6705904861327748 -0.0085345991690915
  0.8312668772947303  0.5009312455304313  0.7477042861118969
  0.8307470093234968  0.5001605339952860  0.2553778223680691
  0.3454905291444879  0.6569693896188252  0.5202543608593161
  0.3230249389277957  0.3288129922745497 -0.0024299329734962
  0.5012472260711222  0.8327861245376489  0.7335859103601066
  0.8290315132616192  0.1814985548206824  0.2475709347650142
  0.1504015382439039  0.5029816439250236  0.7556893446592747
  0.1653143684445717  0.8309901160676801  0.7348273505975168
  0.6847546825952112 -0.0188437603540365  0.0010812977281428
  0.5118244525438670  0.4905881873490089  0.2576448330804647
 -0.0039602214177337  0.3376352096360148  0.5012356826711228
 -0.0118980527791687  0.6700647043603096  0.5049620917698979
 -0.0004073386791572  0.0039475771187126  0.4961871577218845
 -0.0035515504284283  0.3382375181280848  0.0051439065576309
  0.5073966328431735  0.1645274138340428  0.7519372539904258
  0.0016640881210697  0.0049866656723101 -0.0019625345988234
  0.3260531143153040  0.3318071332570032  0.5073564621782850
  0.3183017156738719  0.0108945865786208 -0.0085863089629820
  0.1688243574219983  0.8276847879809359  0.2579248278801692
  0.6735009208051185  0.6631866453121947 -0.0042463828634373
  0.5087161781585245  0.1677824592279292  0.2505316362570759
  0.6886858304272925 -0.0157523580429221  0.4943316954722937
  0.8231198085797754  0.1814323092478144  0.7540072433515987
  0.4969770318871276  0.8318988485062482  0.2615665457822097
  0.1568530208187994  0.5091974824894101  0.2486761132300858
  0.3424326020141110  0.6510461453355595 -0.0209130333484813
 
  0.00000000E+00  0.00000000E+00  0.00000000E+00
  0.00000000E+00  0.00000000E+00  0.00000000E+00
  0.00000000E+00  0.00000000E+00  0.00000000E+00
  0.00000000E+00  0.00000000E+00  0.00000000E+00
  0.00000000E+00  0.00000000E+00  0.00000000E+00
  0.00000000E+00  0.00000000E+00  0.00000000E+00
  0.00000000E+00  0.00000000E+00  0.00000000E+00
  0.00000000E+00  0.00000000E+00  0.00000000E+00
  0.00000000E+00  0.00000000E+00  0.00000000E+00
  0.00000000E+00  0.00000000E+00  0.00000000E+00
  0.00000000E+00  0.00000000E+00  0.00000000E+00
  0.00000000E+00  0.00000000E+00  0.00000000E+00
  0.00000000E+00  0.00000000E+00  0.00000000E+00
  0.00000000E+00  0.00000000E+00  0.00000000E+00
  0.00000000E+00  0.00000000E+00  0.00000000E+00
  0.00000000E+00  0.00000000E+00  0.00000000E+00
  0.00000000E+00  0.00000000E+00  0.00000000E+00
  0.00000000E+00  0.00000000E+00  0.00000000E+00
  0.00000000E+00  0.00000000E+00  0.00000000E+00
  0.00000000E+00  0.00000000E+00  0.00000000E+00
  0.00000000E+00  0.00000000E+00  0.00000000E+00
  0.00000000E+00  0.00000000E+00  0.00000000E+00
  0.00000000E+00  0.00000000E+00  0.00000000E+00
  0.00000000E+00  0.00000000E+00  0.00000000E+00
  0.00000000E+00  0.00000000E+00  0.00000000E+00
  0.00000000E+00  0.00000000E+00  0.00000000E+00
  0.00000000E+00  0.00000000E+00  0.00000000E+00
  0.00000000E+00  0.00000000E+00  0.00000000E+00
  0.00000000E+00  0.00000000E+00  0.00000000E+00
  0.00000000E+00  0.00000000E+00  0.00000000E+00
  0.00000000E+00  0.00000000E+00  0.00000000E+00
  0.00000000E+00  0.00000000E+00  0.00000000E+00
  0.00000000E+00  0.00000000E+00  0.00000000E+00
  0.00000000E+00  0.00000000E+00  0.00000000E+00
  0.00000000E+00  0.00000000E+00  0.00000000E+00
  0.00000000E+00  0.00000000E+00  0.00000000E+00
