title                                   
    1.000000000000000     
     9.6520573048707874    0.1879052765048143   -0.0738523070234391
     0.1880917683834270    9.5736677845087108    0.0434514263347997
    -0.0495566881183517    0.0290906868335377    6.3785323966927168
   Cr   Hf   Ta   V 
     9     9     9     9
Direct
  0.6753287830323564  0.3225775975273590  0.0007449731039284
  0.8361578154339351  0.8162980844671095  0.7323572450169005
  0.8266850951506052  0.1864018246470907  0.2614518167589647
 -0.0129497299548920  0.6817538176523098  0.5097428255753437
  0.1689123982153330  0.8465495812806038  0.2456530014361541
  0.3216977750539621  0.0020541344844566  0.0177409900379586
  0.6893668268102410  0.6713631251686185  0.5203432980214447
  0.3532018559635896  0.3128634085613560  0.4896275836560796
  0.6904949798943901  0.6628140894919292 -0.0104141966558731
  0.6857334972963790  0.0130114753153132  0.0032024063660595
  0.5082138690110007  0.8251258974386626  0.2417732880432374
 -0.0037747852982415  0.6763225331248193  0.0047662531261140
  0.5125747477342421  0.4923003327162953  0.2529726181886077
 -0.0092565988154330  0.3279984917390794  0.0101112502529565
  0.1768507727221153  0.1646746906015948  0.7310503449187541
  0.6781165021557709  0.0077318680702821  0.5063564553476634
  0.5114581567794230  0.4961673062459134  0.7517511696471108
  0.4979405140868686  0.8337800293573379  0.7567423761004326
  0.1651367741370967  0.8454018375481889  0.7428256444375744
 -0.0069341391019711  0.0032098559532169  0.4769939523521922
  0.1655234255543187  0.4830930571773305  0.2795591376464265
  0.3109209964607039  0.6646308662444439  0.0096024379164036
  0.3383127662530941  0.3228326069756857  0.0041414955830604
  0.1578446919252962  0.4955481384659388  0.7306477519102359
  0.3163820562438862  0.6762788400786920  0.4869581713246557
 -0.0041219964209518  0.0013397202057391  0.0031833964236091
  0.8210175890386956  0.5082472743422898  0.2672909379407156
  0.8367554673632389  0.8146463428520285  0.2776345605724191
 -0.0223616879465126  0.3289465052850595  0.4971059845678787
  0.8263052498543482  0.1936550650721425  0.7431966210083421
  0.4943644310641450  0.1755464151049980  0.7380922238393924
  0.1837604161690112  0.1537737382289544  0.2434702318175586
  0.6739446002999969  0.3156006302027626  0.5038446270397473
  0.8183613276443433  0.5099134661439272  0.7473355517985290
  0.3280821662239338  0.0002630706021185  0.4662756532471352
  0.4899533899656836  0.1672842816263499  0.2558679216322857
 
  0.00000000E+00  0.00000000E+00  0.00000000E+00
  0.00000000E+00  0.00000000E+00  0.00000000E+00
  0.00000000E+00  0.00000000E+00  0.00000000E+00
  0.00000000E+00  0.00000000E+00  0.00000000E+00
  0.00000000E+00  0.00000000E+00  0.00000000E+00
  0.00000000E+00  0.00000000E+00  0.00000000E+00
  0.00000000E+00  0.00000000E+00  0.00000000E+00
  0.00000000E+00  0.00000000E+00  0.00000000E+00
  0.00000000E+00  0.00000000E+00  0.00000000E+00
  0.00000000E+00  0.00000000E+00  0.00000000E+00
  0.00000000E+00  0.00000000E+00  0.00000000E+00
  0.00000000E+00  0.00000000E+00  0.00000000E+00
  0.00000000E+00  0.00000000E+00  0.00000000E+00
  0.00000000E+00  0.00000000E+00  0.00000000E+00
  0.00000000E+00  0.00000000E+00  0.00000000E+00
  0.00000000E+00  0.00000000E+00  0.00000000E+00
  0.00000000E+00  0.00000000E+00  0.00000000E+00
  0.00000000E+00  0.00000000E+00  0.00000000E+00
  0.00000000E+00  0.00000000E+00  0.00000000E+00
  0.00000000E+00  0.00000000E+00  0.00000000E+00
  0.00000000E+00  0.00000000E+00  0.00000000E+00
  0.00000000E+00  0.00000000E+00  0.00000000E+00
  0.00000000E+00  0.00000000E+00  0.00000000E+00
  0.00000000E+00  0.00000000E+00  0.00000000E+00
  0.00000000E+00  0.00000000E+00  0.00000000E+00
  0.00000000E+00  0.00000000E+00  0.00000000E+00
  0.00000000E+00  0.00000000E+00  0.00000000E+00
  0.00000000E+00  0.00000000E+00  0.00000000E+00
  0.00000000E+00  0.00000000E+00  0.00000000E+00
  0.00000000E+00  0.00000000E+00  0.00000000E+00
  0.00000000E+00  0.00000000E+00  0.00000000E+00
  0.00000000E+00  0.00000000E+00  0.00000000E+00
  0.00000000E+00  0.00000000E+00  0.00000000E+00
  0.00000000E+00  0.00000000E+00  0.00000000E+00
  0.00000000E+00  0.00000000E+00  0.00000000E+00
  0.00000000E+00  0.00000000E+00  0.00000000E+00
