title                                   
    1.000000000000000     
     9.6814552144527806    0.0230711535974654   -0.0171664841523075
     0.0231361520059576    9.6348891466758548   -0.0194816929642255
    -0.0114907110002454   -0.0129969462662726    6.4174271680089898
   Mo   Ta   V    Zr
    19    10     4     3
Direct
  0.8515480713857800  0.4974493560627611  0.7477846993467956
  0.0042595454160201 -0.0001562009238158  0.0016850253115189
  0.3294603843348678 -0.0047296108685092  0.5025037215803859
  0.1665948647784319  0.5029049978006235  0.7480674087019371
  0.6666634544444138 -0.0000982395453665  0.0004292059558997
  0.0026263328642547  0.3386901684989163  0.0037387009190019
  0.0039567596623108  0.0018095948696321  0.5005115730166031
  0.3287878875915099  0.6640729042559990  0.5008069793296980
  0.1654117947120302  0.8290876634475277  0.2489705465688155
  0.0063003221456008  0.6634604952830596  0.4983347924381749
  0.3271466738199363  0.6645136008303304 -0.0021345334047484
  0.6677424537568678  0.0002853188181226  0.4998104173684804
  0.1629709413126178  0.1679432439740047  0.7477795824993092
  0.8524247266700818  0.4994997225780540  0.2526166391814008
  0.4843437553440187  0.4997699101895483  0.2539026527908349
  0.4936437483884187  0.8341572462084506  0.7480516444498181
  0.8385340944098375  0.1653589037039584  0.2541035973452871
  0.1643481343815480  0.8294296559959606  0.7494777905003076
  0.3286214212764781  0.3381755966421502  0.5019453940831291
  0.8386788143969086  0.1625713007250647  0.7499718359627241
  0.4994120227774818  0.1640128690908884  0.7420403617771367
  0.6724183450001640  0.3379606085736414  0.4970838034210897
  0.3270393126307972 -0.0036685128086945 -0.0066776481612890
  0.8422833972877709  0.8397345030136969  0.7508522121411696
  0.1634464914179349  0.1705537432396890  0.2572889480586504
  0.4970081542126422  0.1612566523617348  0.2549778018947318
  0.3285421576824041  0.3371624416729078 -0.0019570778331616
  0.4953119344689062  0.8366625568106866  0.2514219874071350
  0.8403810210809731  0.8388413219989493  0.2491735377321760
  0.0065467847679876  0.6643154215749665  0.0005551481812780
  0.4794484710353117  0.4977172942522288  0.7403872151397209
  0.1644210173942567  0.5027702519326276  0.2533694308984411
  0.0005158960185496  0.3390365340713232  0.5023746941820880
  0.6669267315614078  0.6599815367051454 -0.0034463347013019
  0.6651378229374945  0.6592455254074386  0.5025343440359253
  0.6670962586339841  0.3402216235562968  0.0016639018808336
 
  0.00000000E+00  0.00000000E+00  0.00000000E+00
  0.00000000E+00  0.00000000E+00  0.00000000E+00
  0.00000000E+00  0.00000000E+00  0.00000000E+00
  0.00000000E+00  0.00000000E+00  0.00000000E+00
  0.00000000E+00  0.00000000E+00  0.00000000E+00
  0.00000000E+00  0.00000000E+00  0.00000000E+00
  0.00000000E+00  0.00000000E+00  0.00000000E+00
  0.00000000E+00  0.00000000E+00  0.00000000E+00
  0.00000000E+00  0.00000000E+00  0.00000000E+00
  0.00000000E+00  0.00000000E+00  0.00000000E+00
  0.00000000E+00  0.00000000E+00  0.00000000E+00
  0.00000000E+00  0.00000000E+00  0.00000000E+00
  0.00000000E+00  0.00000000E+00  0.00000000E+00
  0.00000000E+00  0.00000000E+00  0.00000000E+00
  0.00000000E+00  0.00000000E+00  0.00000000E+00
  0.00000000E+00  0.00000000E+00  0.00000000E+00
  0.00000000E+00  0.00000000E+00  0.00000000E+00
  0.00000000E+00  0.00000000E+00  0.00000000E+00
  0.00000000E+00  0.00000000E+00  0.00000000E+00
  0.00000000E+00  0.00000000E+00  0.00000000E+00
  0.00000000E+00  0.00000000E+00  0.00000000E+00
  0.00000000E+00  0.00000000E+00  0.00000000E+00
  0.00000000E+00  0.00000000E+00  0.00000000E+00
  0.00000000E+00  0.00000000E+00  0.00000000E+00
  0.00000000E+00  0.00000000E+00  0.00000000E+00
  0.00000000E+00  0.00000000E+00  0.00000000E+00
  0.00000000E+00  0.00000000E+00  0.00000000E+00
  0.00000000E+00  0.00000000E+00  0.00000000E+00
  0.00000000E+00  0.00000000E+00  0.00000000E+00
  0.00000000E+00  0.00000000E+00  0.00000000E+00
  0.00000000E+00  0.00000000E+00  0.00000000E+00
  0.00000000E+00  0.00000000E+00  0.00000000E+00
  0.00000000E+00  0.00000000E+00  0.00000000E+00
  0.00000000E+00  0.00000000E+00  0.00000000E+00
  0.00000000E+00  0.00000000E+00  0.00000000E+00
  0.00000000E+00  0.00000000E+00  0.00000000E+00
