title                                   
    1.000000000000000     
     9.7295748161007172   -0.0252779676787775    0.0908843427094269
    -0.0252226879562255    9.7560940198493231   -0.0335280921338526
     0.0601978188440927   -0.0223002310375327    6.5576546682134778
   Hf   Mo   Ta   Ti   V 
     7     7     7     8     7
Direct
  0.8349859388140878  0.8464076832108154  0.7455156709894354
  0.0009386510754563  0.6642830970360347 -0.0040548556587411
  0.4865136469020835  0.8274838534154529  0.2034826055625516
  0.4955368003796836  0.4910190240938429  0.7629498990137809
  0.0052816741340663  0.3290111452408344  0.0016985365103284
  0.6530818427327962  0.6689802273812442  0.4811118344289366
  0.3265369026569713  0.0011710870644707  0.4977488715972256
  0.0132060674390456  0.6731626392750079  0.5025371766823563
  0.5015708787245380  0.1767650677191665  0.2492071662934701
  0.0066026407889628  0.0008713073697311  0.0044710673610942
  0.3182534186116559  0.6627729949696110 -0.0144124360454695
  0.1639823568087646  0.1610097118107660  0.7515103754203064
  0.1636178162563920  0.1603476988920657  0.2477864856577164
  0.6671389162513199  0.3282570426603577  0.4937827208416696
  0.4968908977591697  0.8348139531405862  0.7647006715620340
  0.8276860846414714  0.4911325973383044  0.7310114725851401
  0.0169071500864453  0.3223511413884142  0.5080346848858005
  0.8427067177629558  0.4923981939087744  0.2831737725697874
  0.1815293082828638  0.5039670458808188  0.2529851850544947
  0.8475778358633032  0.8464751112287209  0.2598973784633881
  0.6578930376898380  0.0062115139805204  0.4821393996737059
  0.3309249247848476  0.6700798309901244  0.5021470075986099
  0.6704887462265504  0.3298206770378717  0.0244399871996975
  0.3171687725860456  0.0121781094232041 -0.0114107426443393
  0.8276260158012733  0.1644107496057714  0.7411494029497027
  0.5121291681528948  0.1775652354167845  0.7532352649179168
  0.6797814513538105  0.6500944245950380  0.0160545522073275
  0.6685505001766644  0.0267194674664684  0.0259200272437345
  0.3320096788074949  0.3247420823579191  0.4909007209798173
  0.0118043699003524  0.0058114422346364  0.4957341525970821
  0.8354697628046366  0.1655906733317746  0.2760603866830109
  0.1822452283819096  0.5069619061805423  0.7504518785637118
  0.4822004514506270  0.4959322377975038  0.2268476309345147
  0.3312675988013652  0.3206127415185158  0.0142705484372905
  0.1572819875330001  0.8291112205105174  0.2529628908389897
  0.1526127595766573  0.8314770645277869  0.7359586080439225
 
  0.00000000E+00  0.00000000E+00  0.00000000E+00
  0.00000000E+00  0.00000000E+00  0.00000000E+00
  0.00000000E+00  0.00000000E+00  0.00000000E+00
  0.00000000E+00  0.00000000E+00  0.00000000E+00
  0.00000000E+00  0.00000000E+00  0.00000000E+00
  0.00000000E+00  0.00000000E+00  0.00000000E+00
  0.00000000E+00  0.00000000E+00  0.00000000E+00
  0.00000000E+00  0.00000000E+00  0.00000000E+00
  0.00000000E+00  0.00000000E+00  0.00000000E+00
  0.00000000E+00  0.00000000E+00  0.00000000E+00
  0.00000000E+00  0.00000000E+00  0.00000000E+00
  0.00000000E+00  0.00000000E+00  0.00000000E+00
  0.00000000E+00  0.00000000E+00  0.00000000E+00
  0.00000000E+00  0.00000000E+00  0.00000000E+00
  0.00000000E+00  0.00000000E+00  0.00000000E+00
  0.00000000E+00  0.00000000E+00  0.00000000E+00
  0.00000000E+00  0.00000000E+00  0.00000000E+00
  0.00000000E+00  0.00000000E+00  0.00000000E+00
  0.00000000E+00  0.00000000E+00  0.00000000E+00
  0.00000000E+00  0.00000000E+00  0.00000000E+00
  0.00000000E+00  0.00000000E+00  0.00000000E+00
  0.00000000E+00  0.00000000E+00  0.00000000E+00
  0.00000000E+00  0.00000000E+00  0.00000000E+00
  0.00000000E+00  0.00000000E+00  0.00000000E+00
  0.00000000E+00  0.00000000E+00  0.00000000E+00
  0.00000000E+00  0.00000000E+00  0.00000000E+00
  0.00000000E+00  0.00000000E+00  0.00000000E+00
  0.00000000E+00  0.00000000E+00  0.00000000E+00
  0.00000000E+00  0.00000000E+00  0.00000000E+00
  0.00000000E+00  0.00000000E+00  0.00000000E+00
  0.00000000E+00  0.00000000E+00  0.00000000E+00
  0.00000000E+00  0.00000000E+00  0.00000000E+00
  0.00000000E+00  0.00000000E+00  0.00000000E+00
  0.00000000E+00  0.00000000E+00  0.00000000E+00
  0.00000000E+00  0.00000000E+00  0.00000000E+00
  0.00000000E+00  0.00000000E+00  0.00000000E+00
