title                                   
    1.000000000000000     
     9.6103702744399229   -0.0013183763713346   -0.0143447824537636
    -0.0012088533455069    9.5744862810129145    0.0290015043259694
    -0.0096144436765301    0.0194381807556669    6.4199948055782974
   Cr   Hf   Mo   Ta   W 
     8     7     7     7     7
Direct
  0.6589455638718897  0.3466066530963381  0.4903922729558493
  0.1666658720883831  0.1630158411216793  0.7480469736057903
  0.3281573251462662 -0.0070647295218360  0.4929148693170541
  0.6621498542905573  0.6668194354019287  0.5006646601561170
  0.4851682595817660  0.1645852325126899  0.2538832046863363
  0.1658873452541402  0.4899985635180893  0.2550584842854690
  0.1693082257526556  0.8427290913625740  0.7406369656030015
  0.0126737194457276 -0.0030537857787114  0.0033009596237670
  0.6542558021616662  0.3322053522907187  0.0111993107156846
  0.8417320048400172  0.1687675167767288  0.7462429911255110
  0.0110485692687520  0.6720601513622672  0.0095019948726613
  0.8361558451707573  0.8350319925909555  0.7473290449408806
  0.6565633545720478  0.0000486660623033  0.0114971059365549
  0.3303829228007504  0.6662972877380763  0.0018691338156119
  0.4946575292441332  0.1633012934733190  0.7211751094930466
  0.1697152655184041  0.8401912428819105  0.2615088880838002
  0.0067592549815037  0.3342721149523754  0.4980582310339819
  0.6622020308939860 -0.0036767754778154  0.4887726421797590
  0.0085802206621526  0.6694653234100394  0.4988075572597549
  0.5010978548232692  0.5003932951363640  0.7413449122413274
  0.0045622855179021  0.3368687268073037  0.0037349637382848
  0.3366871141472645  0.6678691574294592  0.5013451245233260
  0.8426890020197060  0.1681652693097479  0.2577818531878971
  0.1637941195392205  0.1630510348593752  0.2444169648217571
  0.8315092649327190  0.5022404927578052  0.7434925148330723
  0.8305576577184438  0.5023411264692789  0.2668867884986054
  0.3300381893614556  0.3334244001799148  0.4867517317645630
  0.1647732996134446  0.4929485515471378  0.7434050324252732
  0.3291594157142709 -0.0048919771586679 -0.0079405459928574
  0.8341323910059759  0.8342514460281519  0.2638985661235091
  0.6616434929736037  0.6670889600779050  0.0085667117639562
  0.4985393038369669  0.8307918092217692  0.2642475076547827
  0.5001970147538353  0.8315659806749442  0.7365537085872230
  0.5028396551599422  0.5031002222490980  0.2618288019126881
  0.3324322187607653  0.3315151279719915 -0.0009478651794800
  0.0143387545756591 -0.0023240913352120  0.5037728294054415
 
  0.00000000E+00  0.00000000E+00  0.00000000E+00
  0.00000000E+00  0.00000000E+00  0.00000000E+00
  0.00000000E+00  0.00000000E+00  0.00000000E+00
  0.00000000E+00  0.00000000E+00  0.00000000E+00
  0.00000000E+00  0.00000000E+00  0.00000000E+00
  0.00000000E+00  0.00000000E+00  0.00000000E+00
  0.00000000E+00  0.00000000E+00  0.00000000E+00
  0.00000000E+00  0.00000000E+00  0.00000000E+00
  0.00000000E+00  0.00000000E+00  0.00000000E+00
  0.00000000E+00  0.00000000E+00  0.00000000E+00
  0.00000000E+00  0.00000000E+00  0.00000000E+00
  0.00000000E+00  0.00000000E+00  0.00000000E+00
  0.00000000E+00  0.00000000E+00  0.00000000E+00
  0.00000000E+00  0.00000000E+00  0.00000000E+00
  0.00000000E+00  0.00000000E+00  0.00000000E+00
  0.00000000E+00  0.00000000E+00  0.00000000E+00
  0.00000000E+00  0.00000000E+00  0.00000000E+00
  0.00000000E+00  0.00000000E+00  0.00000000E+00
  0.00000000E+00  0.00000000E+00  0.00000000E+00
  0.00000000E+00  0.00000000E+00  0.00000000E+00
  0.00000000E+00  0.00000000E+00  0.00000000E+00
  0.00000000E+00  0.00000000E+00  0.00000000E+00
  0.00000000E+00  0.00000000E+00  0.00000000E+00
  0.00000000E+00  0.00000000E+00  0.00000000E+00
  0.00000000E+00  0.00000000E+00  0.00000000E+00
  0.00000000E+00  0.00000000E+00  0.00000000E+00
  0.00000000E+00  0.00000000E+00  0.00000000E+00
  0.00000000E+00  0.00000000E+00  0.00000000E+00
  0.00000000E+00  0.00000000E+00  0.00000000E+00
  0.00000000E+00  0.00000000E+00  0.00000000E+00
  0.00000000E+00  0.00000000E+00  0.00000000E+00
  0.00000000E+00  0.00000000E+00  0.00000000E+00
  0.00000000E+00  0.00000000E+00  0.00000000E+00
  0.00000000E+00  0.00000000E+00  0.00000000E+00
  0.00000000E+00  0.00000000E+00  0.00000000E+00
  0.00000000E+00  0.00000000E+00  0.00000000E+00
