title                                   
    1.000000000000000     
     8.7356302937957917    0.0090432088909859    0.0067864465904972
     0.0090401524510857    8.7354929260964571    0.0219137718018067
     0.0045219550951763    0.0146176537075202    5.8323155785387248
   Cr   V 
    18    18
Direct
  0.1666602681002693  0.1677862173556788  0.7494215904815295
  0.3317481034391247  0.3317707632494702  0.4978172547078349
  0.6658431535264517 -0.0015866030336775  0.0044089371560692
  0.5026431440384717  0.8339901719305128  0.2468060753295064
  0.6645812468062765  0.6690013246226861  0.0004179991081679
  0.8299254760370259  0.8367381121190365  0.2510733554500828
  0.3344234453636007  0.6669810893494021 -0.0003746193065712
  0.0010843410877824  0.0019702705055480  0.4982970696674989
  0.1680044623507455  0.4976613656459839  0.2481828852350488
  0.0016601319687035  0.3315575110366209  0.0043839260497604
  0.6659141466594724 -0.0009330625703958  0.4964304341623065
  0.1666833810711692  0.8337674519494843  0.2523497066915442
  0.8346292578749329  0.1642549797261646  0.2512912402713548
  0.5014425777055247  0.1651326892492341  0.2503285205129196
  0.1655519485081131  0.1674711770463203  0.2532879750569069
  0.4979809253629623  0.5011479346705993  0.7491566727570399
  0.5019444162258387  0.8335452651586904  0.7515675258026602
  0.8328290417605839  0.5005512822289047  0.2460613271553477
  0.8335371592194067  0.4999157925899690  0.7525226940725661
  0.3321881308194360  0.3313124137280462  0.0000765792935371
  0.1679444419799776  0.4981597016263997  0.7514617445726359
  0.0010937256404445  0.0012051355183539  0.0098130144525261
  0.5023694753610618  0.1645426547666445  0.7471313098603767
  0.1670009249112232  0.8323093219773426  0.7527340332534207
  0.6673252623550397  0.3335244850072742  0.4940920986487940
  0.6643503237573609  0.6695919014547467  0.4966747251462974
  0.8336444657478959  0.1634401892043301  0.7500702775760619
  0.0018130161018687  0.3312477012778297  0.4944959742857925
  0.3339029186753857 -0.0005471533393547  0.0042280216626956
  0.8296257148557883  0.8365821605612381  0.7526686820166398
  0.4977039613847994  0.5028419544848414  0.2441223557456050
  0.3348327215041900  0.6683853869501036  0.4975506693273367
  0.6667690069364126  0.3334820847906874  0.0009472291026401
  0.3339547722474455 -0.0002175776399704  0.4977061139670063
 -0.0010931338079502  0.6665516471191338  0.0083957031720254
 -0.0005123555768356  0.6668642596821228  0.4944008975550353
 
  0.00000000E+00  0.00000000E+00  0.00000000E+00
  0.00000000E+00  0.00000000E+00  0.00000000E+00
  0.00000000E+00  0.00000000E+00  0.00000000E+00
  0.00000000E+00  0.00000000E+00  0.00000000E+00
  0.00000000E+00  0.00000000E+00  0.00000000E+00
  0.00000000E+00  0.00000000E+00  0.00000000E+00
  0.00000000E+00  0.00000000E+00  0.00000000E+00
  0.00000000E+00  0.00000000E+00  0.00000000E+00
  0.00000000E+00  0.00000000E+00  0.00000000E+00
  0.00000000E+00  0.00000000E+00  0.00000000E+00
  0.00000000E+00  0.00000000E+00  0.00000000E+00
  0.00000000E+00  0.00000000E+00  0.00000000E+00
  0.00000000E+00  0.00000000E+00  0.00000000E+00
  0.00000000E+00  0.00000000E+00  0.00000000E+00
  0.00000000E+00  0.00000000E+00  0.00000000E+00
  0.00000000E+00  0.00000000E+00  0.00000000E+00
  0.00000000E+00  0.00000000E+00  0.00000000E+00
  0.00000000E+00  0.00000000E+00  0.00000000E+00
  0.00000000E+00  0.00000000E+00  0.00000000E+00
  0.00000000E+00  0.00000000E+00  0.00000000E+00
  0.00000000E+00  0.00000000E+00  0.00000000E+00
  0.00000000E+00  0.00000000E+00  0.00000000E+00
  0.00000000E+00  0.00000000E+00  0.00000000E+00
  0.00000000E+00  0.00000000E+00  0.00000000E+00
  0.00000000E+00  0.00000000E+00  0.00000000E+00
  0.00000000E+00  0.00000000E+00  0.00000000E+00
  0.00000000E+00  0.00000000E+00  0.00000000E+00
  0.00000000E+00  0.00000000E+00  0.00000000E+00
  0.00000000E+00  0.00000000E+00  0.00000000E+00
  0.00000000E+00  0.00000000E+00  0.00000000E+00
  0.00000000E+00  0.00000000E+00  0.00000000E+00
  0.00000000E+00  0.00000000E+00  0.00000000E+00
  0.00000000E+00  0.00000000E+00  0.00000000E+00
  0.00000000E+00  0.00000000E+00  0.00000000E+00
  0.00000000E+00  0.00000000E+00  0.00000000E+00
  0.00000000E+00  0.00000000E+00  0.00000000E+00
