title                                   
    1.000000000000000     
     9.6921076223917861   -0.0156961480792302   -0.0133363420244853
    -0.0156972801718157    9.6864974297336293   -0.0135828427546216
    -0.0088800133960683   -0.0090423408243783    6.4530166673762928
   Nb   Ta   Ti   V    W 
    15     3     3     4    11
Direct
  0.0024182468638433  0.6651047684466146  0.4957158947899101
  0.6676032749200740  0.3294189559086741  0.4946039560498386
  0.8300931679875283  0.1661679030273771  0.7547945043694609
  0.3302005447500428  0.6684821988166381  0.4974211380107193
  0.4995431712887024  0.8389688912784895  0.2463524694746111
  0.1712131432599298  0.1662845566842072  0.7521174305156696
 -0.0016907061400871  0.3326879164341351  0.4873753481379753
  0.3305352185911354  0.6708041943450030  0.0028512383027512
  0.1689242646327400  0.8367265783757194  0.7531881667455202
  0.8309777763661369  0.8377621633270279  0.2456799021563683
  0.3358665588826811  0.3303003629166520  0.0034811297306117
  0.8302186297691669  0.4983681332009621  0.7523920871281243
  0.8301641130774026  0.8353054783923382  0.7536803578150826
  0.6657079950948298  0.6677539389444813  0.4977065153213976
  0.5002897455001623  0.4974083854989221  0.2474847450377091
  0.4985985087004412  0.4978482576285482  0.7516183335402403
 -0.0006603460355195  0.0025178597399286  0.4971780363375857
  0.0025235483060176  0.6604240908059790  0.0070286927882790
  0.1720183679435711  0.4942992179556367  0.7435129800248438
  0.1718856602011169  0.1645604155760731  0.2474801268922306
 -0.0072397604778477  0.3352453126999764  0.0149114935940597
  0.1705153883030122  0.4935000282672410  0.2616795364904653
  0.6704120448456365  0.3292952007055918  0.0039911514745004
  0.3383297432549671  0.0006101417713287 -0.0027177236900579
  0.8287471141551461  0.1627804389009276  0.2444273181250329
  0.8303077752879801  0.4981565537202683  0.2461261627285047
  0.6636942775538389  0.0039459034939433  0.4990234471817737
 -0.0003963302805849  0.0023476282514388  0.0030686070900659
  0.6628860757681493  0.0050331741174670 -0.0004764398550336
  0.3356124620973209  0.3304840572287488  0.4975920695323283
  0.5001219489526597  0.8388918362292542  0.7512238847835624
  0.5002281131656543  0.1654697709630496  0.7523227951834234
  0.1681914034079712  0.8412720433335810  0.2488454501757804
  0.3354941776256053  0.0006929051793662  0.5008749121647502
  0.6669294914819972  0.6665516752670457 -0.0007653418314112
  0.4997351908985778  0.1645290625673642  0.2482096236833281
 
  0.00000000E+00  0.00000000E+00  0.00000000E+00
  0.00000000E+00  0.00000000E+00  0.00000000E+00
  0.00000000E+00  0.00000000E+00  0.00000000E+00
  0.00000000E+00  0.00000000E+00  0.00000000E+00
  0.00000000E+00  0.00000000E+00  0.00000000E+00
  0.00000000E+00  0.00000000E+00  0.00000000E+00
  0.00000000E+00  0.00000000E+00  0.00000000E+00
  0.00000000E+00  0.00000000E+00  0.00000000E+00
  0.00000000E+00  0.00000000E+00  0.00000000E+00
  0.00000000E+00  0.00000000E+00  0.00000000E+00
  0.00000000E+00  0.00000000E+00  0.00000000E+00
  0.00000000E+00  0.00000000E+00  0.00000000E+00
  0.00000000E+00  0.00000000E+00  0.00000000E+00
  0.00000000E+00  0.00000000E+00  0.00000000E+00
  0.00000000E+00  0.00000000E+00  0.00000000E+00
  0.00000000E+00  0.00000000E+00  0.00000000E+00
  0.00000000E+00  0.00000000E+00  0.00000000E+00
  0.00000000E+00  0.00000000E+00  0.00000000E+00
  0.00000000E+00  0.00000000E+00  0.00000000E+00
  0.00000000E+00  0.00000000E+00  0.00000000E+00
  0.00000000E+00  0.00000000E+00  0.00000000E+00
  0.00000000E+00  0.00000000E+00  0.00000000E+00
  0.00000000E+00  0.00000000E+00  0.00000000E+00
  0.00000000E+00  0.00000000E+00  0.00000000E+00
  0.00000000E+00  0.00000000E+00  0.00000000E+00
  0.00000000E+00  0.00000000E+00  0.00000000E+00
  0.00000000E+00  0.00000000E+00  0.00000000E+00
  0.00000000E+00  0.00000000E+00  0.00000000E+00
  0.00000000E+00  0.00000000E+00  0.00000000E+00
  0.00000000E+00  0.00000000E+00  0.00000000E+00
  0.00000000E+00  0.00000000E+00  0.00000000E+00
  0.00000000E+00  0.00000000E+00  0.00000000E+00
  0.00000000E+00  0.00000000E+00  0.00000000E+00
  0.00000000E+00  0.00000000E+00  0.00000000E+00
  0.00000000E+00  0.00000000E+00  0.00000000E+00
  0.00000000E+00  0.00000000E+00  0.00000000E+00
