title                                   
    1.000000000000000     
    10.1716896512233568   -0.0465969847772622    0.0446910853118528
    -0.0463722971754186   10.1023191863108117   -0.0674193535689410
     0.0300642198826247   -0.0447543665789930    6.8292533488698943
   Hf   Mo   Nb   Zr
     9     9     9     9
Direct
 -0.0039132781374977  0.0049684081077130  0.5075280396952464
  0.6739685038953026  0.3236259966646009  0.5126523040231687
  0.8459055384390511  0.1771876806152189  0.2189642191254277
  0.1559158018251582  0.1674728548227140  0.2311956046151630
  0.5033804196694986  0.8177617802578693  0.2664701612528077
  0.4915365559399952  0.1746015637924178  0.7790841129773263
  0.0037575529871506  0.3311865899421050  0.5249309349433358
  0.3279211596527256  0.6611181966025309  0.0031941046561605
  0.8265213451098090  0.5039318506889658  0.2436073338197407
  0.1655361552048808  0.8368643051726626  0.2625113562282423
  0.0008816964581751  0.0028721272833911 -0.0226343130167251
  0.6636389958976329  0.6556858298769984  0.5005085518248029
  0.6645241546236111  0.3373999958376741 -0.0037816758329135
  0.1741813059913906  0.5039562605522813  0.7479921979652234
  0.6582667170284393  0.6626974440732785 -0.0002375126358077
  0.1623771788835982  0.1619230540281884  0.7597597270831448
  0.8395508345136974  0.1729903343525415  0.7728144814670593
  0.3270714448358767  0.6540916142793024  0.4980263212240407
  0.0146145001214958  0.6756763933968737  0.4963538666277453
  0.3106708446783407 -0.0051588293730330  0.5010136173018238
  0.8329174917499630  0.8239459950521747  0.7461633718558571
  0.1735906851419985  0.5000165357872166  0.2609395901948082
  0.1641543317139139  0.8336035011092318  0.7343176619715399
  0.5115144523302239  0.5005021317571857  0.7617978341338932
  0.3259537435005970  0.3496197656321082 -0.0038842371075807
  0.0125897620849251  0.3383843359595389 -0.0284352747073286
  0.5079013844509012  0.5032696085976646  0.2530094408441717
  0.3264819322506275  0.3378007712961015  0.5158561664852396
  0.0205426574683137  0.6728262208845942  0.0028823258723710
  0.6753160662880894 -0.0026142622773203 -0.0184864538565233
  0.8267068078583490  0.8244997978479399  0.2455630138351111
  0.3172219333732201 -0.0192601457531796 -0.0024662916305158
  0.6780035877700332  0.0147101862917960  0.5147007043663059
  0.8245669833815303  0.5125831787216741  0.7602139493665823
  0.5001563676578373  0.8163234576771625  0.7243375501258379
  0.4960743853611447  0.1729354704418146  0.2335372149052169
 
  0.00000000E+00  0.00000000E+00  0.00000000E+00
  0.00000000E+00  0.00000000E+00  0.00000000E+00
  0.00000000E+00  0.00000000E+00  0.00000000E+00
  0.00000000E+00  0.00000000E+00  0.00000000E+00
  0.00000000E+00  0.00000000E+00  0.00000000E+00
  0.00000000E+00  0.00000000E+00  0.00000000E+00
  0.00000000E+00  0.00000000E+00  0.00000000E+00
  0.00000000E+00  0.00000000E+00  0.00000000E+00
  0.00000000E+00  0.00000000E+00  0.00000000E+00
  0.00000000E+00  0.00000000E+00  0.00000000E+00
  0.00000000E+00  0.00000000E+00  0.00000000E+00
  0.00000000E+00  0.00000000E+00  0.00000000E+00
  0.00000000E+00  0.00000000E+00  0.00000000E+00
  0.00000000E+00  0.00000000E+00  0.00000000E+00
  0.00000000E+00  0.00000000E+00  0.00000000E+00
  0.00000000E+00  0.00000000E+00  0.00000000E+00
  0.00000000E+00  0.00000000E+00  0.00000000E+00
  0.00000000E+00  0.00000000E+00  0.00000000E+00
  0.00000000E+00  0.00000000E+00  0.00000000E+00
  0.00000000E+00  0.00000000E+00  0.00000000E+00
  0.00000000E+00  0.00000000E+00  0.00000000E+00
  0.00000000E+00  0.00000000E+00  0.00000000E+00
  0.00000000E+00  0.00000000E+00  0.00000000E+00
  0.00000000E+00  0.00000000E+00  0.00000000E+00
  0.00000000E+00  0.00000000E+00  0.00000000E+00
  0.00000000E+00  0.00000000E+00  0.00000000E+00
  0.00000000E+00  0.00000000E+00  0.00000000E+00
  0.00000000E+00  0.00000000E+00  0.00000000E+00
  0.00000000E+00  0.00000000E+00  0.00000000E+00
  0.00000000E+00  0.00000000E+00  0.00000000E+00
  0.00000000E+00  0.00000000E+00  0.00000000E+00
  0.00000000E+00  0.00000000E+00  0.00000000E+00
  0.00000000E+00  0.00000000E+00  0.00000000E+00
  0.00000000E+00  0.00000000E+00  0.00000000E+00
  0.00000000E+00  0.00000000E+00  0.00000000E+00
  0.00000000E+00  0.00000000E+00  0.00000000E+00
