title                                   
    1.000000000000000     
    10.1558870242370762   -0.0021629133167177   -0.0275116953236063
    -0.0020719776896135   10.1215762136473764    0.0310059025439042
    -0.0186832178610505    0.0208228645212950    6.9139484827484115
   Hf   Nb   Ta   Ti   Zr
     7     8     7     7     7
Direct
  0.3142607771530673  0.3323189166833639  0.5165923792985742
  0.6597943406518275  0.6815766694169841  0.5161402994246147
  0.3349066797795646  0.3565318386584352 -0.0262844509319152
 -0.0093589676678320 -0.0005814201924617  0.0039245686512379
  0.0126825059677193 -0.0006698760132144  0.5082993438907021
  0.1755259368697041  0.1742848774659880  0.2205996785593266
  0.4920063322042691  0.5045002304435516  0.2664574501191933
  0.1629300662789933  0.1661541812015028  0.7853994484516481
  0.8417333452032393  0.8292032913944243  0.7500283150372370
  0.0066311211994668  0.6650565963537173  0.5088898775504695
  0.4958409777091637  0.8555341274039837  0.7704446255797226
  0.3339207391354411 -0.0092384907373666  0.0009161382306595
  0.8337609691022284  0.1733365132080647  0.2672941376803601
  0.6781108134574786  0.3335882985016710  0.4684549655204102
  0.1420425836073201  0.5056180259741136  0.7507582427566424
  0.5240115551442996  0.4783652935282072  0.7138313514662210
 -0.0077248514906621  0.3379833159107583  0.0004473539234895
  0.8491930226867357  0.5056978414416288  0.2558526382568507
  0.1644035431895434  0.8292732351109647  0.7785200115054847
  0.0018747610249797  0.6639961392298596 -0.0048153927717509
  0.4878837333623149  0.8355185532333101  0.2379610576756301
  0.1710248626086580  0.8217494554269885  0.2373888259844211
  0.3312980421762927  0.6649815443633683 -0.0106396134341356
  0.6618011825096308 -0.0136827984070546  0.4793797714545900
  0.1578089982906660  0.5066268538235050  0.2466178217291648
  0.8413584279153877  0.4983402904785302  0.7329976955917626
  0.6687944361661783 -0.0049422763320050  0.0217492830289465
  0.4965519840404383  0.1579132220580975  0.2467172012020081
  0.0070475502134020  0.3337567518437785  0.4976586794967379
  0.3340389254038504  0.6674822129960229  0.5266023291301754
  0.8239234388862891  0.1686238743307290  0.7297739777332709
  0.6602699550222254  0.6668573213323287 -0.0175599673899185
  0.5098646573197904  0.1629209161010828  0.7433664497751018
  0.3271508764884130 -0.0018896663504862  0.5049434730025149
  0.8395438231427331  0.8169687453995692  0.2578555195250376
  0.6750928552471823  0.3362453947180593  0.0134365132955131
 
  0.00000000E+00  0.00000000E+00  0.00000000E+00
  0.00000000E+00  0.00000000E+00  0.00000000E+00
  0.00000000E+00  0.00000000E+00  0.00000000E+00
  0.00000000E+00  0.00000000E+00  0.00000000E+00
  0.00000000E+00  0.00000000E+00  0.00000000E+00
  0.00000000E+00  0.00000000E+00  0.00000000E+00
  0.00000000E+00  0.00000000E+00  0.00000000E+00
  0.00000000E+00  0.00000000E+00  0.00000000E+00
  0.00000000E+00  0.00000000E+00  0.00000000E+00
  0.00000000E+00  0.00000000E+00  0.00000000E+00
  0.00000000E+00  0.00000000E+00  0.00000000E+00
  0.00000000E+00  0.00000000E+00  0.00000000E+00
  0.00000000E+00  0.00000000E+00  0.00000000E+00
  0.00000000E+00  0.00000000E+00  0.00000000E+00
  0.00000000E+00  0.00000000E+00  0.00000000E+00
  0.00000000E+00  0.00000000E+00  0.00000000E+00
  0.00000000E+00  0.00000000E+00  0.00000000E+00
  0.00000000E+00  0.00000000E+00  0.00000000E+00
  0.00000000E+00  0.00000000E+00  0.00000000E+00
  0.00000000E+00  0.00000000E+00  0.00000000E+00
  0.00000000E+00  0.00000000E+00  0.00000000E+00
  0.00000000E+00  0.00000000E+00  0.00000000E+00
  0.00000000E+00  0.00000000E+00  0.00000000E+00
  0.00000000E+00  0.00000000E+00  0.00000000E+00
  0.00000000E+00  0.00000000E+00  0.00000000E+00
  0.00000000E+00  0.00000000E+00  0.00000000E+00
  0.00000000E+00  0.00000000E+00  0.00000000E+00
  0.00000000E+00  0.00000000E+00  0.00000000E+00
  0.00000000E+00  0.00000000E+00  0.00000000E+00
  0.00000000E+00  0.00000000E+00  0.00000000E+00
  0.00000000E+00  0.00000000E+00  0.00000000E+00
  0.00000000E+00  0.00000000E+00  0.00000000E+00
  0.00000000E+00  0.00000000E+00  0.00000000E+00
  0.00000000E+00  0.00000000E+00  0.00000000E+00
  0.00000000E+00  0.00000000E+00  0.00000000E+00
  0.00000000E+00  0.00000000E+00  0.00000000E+00
