title                                   
    1.000000000000000     
    10.0468344532794642   -0.0374034175760975    0.0089172364324674
    -0.0374165043006098    9.9455571140025452   -0.0200457314434832
     0.0058778224669810   -0.0133171763634169    6.5928252438065496
   Hf   Nb   V    W    Zr
     7     7     8     7     7
Direct
  0.1552913590674095  0.8496204066324572  0.7414427903728159
  0.0027028620186273  0.6577217670772236  0.0208260363884478
  0.3402328526657933  0.6761080556983291  0.5028132859128857
 -0.0219765915740209  0.0155162663444423  0.4673504873708379
  0.4985361376657099  0.4828147059453043  0.2628053373559279
  0.6677403608761719  0.0063622885634964  0.4916383117037584
  0.8402852436220472  0.8410327395108065  0.7618074553484833
  0.8249819537449692  0.1685146012485502  0.7741464111115008
 -0.0092833236299931  0.3369510621778851  0.0034987572816979
  0.1639665358350162  0.8472772235305315  0.2705451648895443
 -0.0031663825257468  0.6663680482130453  0.4808170993433227
  0.6602258262180627  0.6741999130233851  0.4984087102121545
  0.8137432806131590  0.4908228985864480  0.2459371570481764
  0.8206686768063757  0.4971433905157884  0.7416856479005981
  0.6635598524266929  0.3202996215649082  0.5031220936284327
  0.1789741364749988  0.4809866329537118  0.2357844329359020
  0.4990804324747237  0.4728603228119596  0.7388501297165068
  0.3625454310656119  0.3185853773326466  0.5192216272170207
  0.3660832927929459 -0.0037600481900021  0.5024841280475721
 -0.0234751778710174  0.0066610175254712  0.0373991807112413
  0.6597164000840617  0.0016579441024550  0.0054914435914791
  0.8126272572365288  0.1737264058048030  0.2134804150213500
  0.5066641831562517  0.8395502180293851  0.2563959020082801
  0.5053998127245513  0.1703070137925585  0.7490711786782180
  0.6629870160668003  0.3260069050928452 -0.0083957284695580
  0.8278798952324984  0.8387173876331332  0.2340173615327752
  0.3475852061936659  0.3274672471387008 -0.0043907303011170
  0.5058959259995351  0.1726205167164601  0.2522782757475983
  0.5080734390991389  0.8442573369297250  0.7443292181816166
  0.3338899255340137  0.6695467033217128  0.0055897474727555
  0.1853485793869966  0.1791927985021827  0.2601185830360469
  0.1752856735543485  0.1654808105062903  0.7539607404397978
 -0.0172559315496113  0.3385680014811722  0.4907132896505915
  0.3508198624112663 -0.0047836295655575  0.0073827984829305
  0.1771346095525189  0.4834983766022087  0.7471510026431228
  0.6572313865499010  0.6680996728455332 -0.0077777422127153
 
  0.00000000E+00  0.00000000E+00  0.00000000E+00
  0.00000000E+00  0.00000000E+00  0.00000000E+00
  0.00000000E+00  0.00000000E+00  0.00000000E+00
  0.00000000E+00  0.00000000E+00  0.00000000E+00
  0.00000000E+00  0.00000000E+00  0.00000000E+00
  0.00000000E+00  0.00000000E+00  0.00000000E+00
  0.00000000E+00  0.00000000E+00  0.00000000E+00
  0.00000000E+00  0.00000000E+00  0.00000000E+00
  0.00000000E+00  0.00000000E+00  0.00000000E+00
  0.00000000E+00  0.00000000E+00  0.00000000E+00
  0.00000000E+00  0.00000000E+00  0.00000000E+00
  0.00000000E+00  0.00000000E+00  0.00000000E+00
  0.00000000E+00  0.00000000E+00  0.00000000E+00
  0.00000000E+00  0.00000000E+00  0.00000000E+00
  0.00000000E+00  0.00000000E+00  0.00000000E+00
  0.00000000E+00  0.00000000E+00  0.00000000E+00
  0.00000000E+00  0.00000000E+00  0.00000000E+00
  0.00000000E+00  0.00000000E+00  0.00000000E+00
  0.00000000E+00  0.00000000E+00  0.00000000E+00
  0.00000000E+00  0.00000000E+00  0.00000000E+00
  0.00000000E+00  0.00000000E+00  0.00000000E+00
  0.00000000E+00  0.00000000E+00  0.00000000E+00
  0.00000000E+00  0.00000000E+00  0.00000000E+00
  0.00000000E+00  0.00000000E+00  0.00000000E+00
  0.00000000E+00  0.00000000E+00  0.00000000E+00
  0.00000000E+00  0.00000000E+00  0.00000000E+00
  0.00000000E+00  0.00000000E+00  0.00000000E+00
  0.00000000E+00  0.00000000E+00  0.00000000E+00
  0.00000000E+00  0.00000000E+00  0.00000000E+00
  0.00000000E+00  0.00000000E+00  0.00000000E+00
  0.00000000E+00  0.00000000E+00  0.00000000E+00
  0.00000000E+00  0.00000000E+00  0.00000000E+00
  0.00000000E+00  0.00000000E+00  0.00000000E+00
  0.00000000E+00  0.00000000E+00  0.00000000E+00
  0.00000000E+00  0.00000000E+00  0.00000000E+00
  0.00000000E+00  0.00000000E+00  0.00000000E+00
