title                                   
    1.000000000000000     
    10.1961749567837359    0.0627216328419537   -0.0437832476809396
     0.0633885686930872    9.9232345911996855   -0.0700207338512818
    -0.0334766463644232   -0.0444793021211806    7.1640761562801423
   Hf   Ta   Ti   V    Zr
     4     3    11     3    15
Direct
  0.6673207877178141  0.0053343349885989  0.0013698358783533
  0.6627587623457339  0.6758271993716405 -0.0268119410282600
  0.6405392453897563  0.3263098931930656  0.4828060956210059
  0.8209379843972867  0.8194013576328603  0.2781035654132070
  0.0215943663027061  0.6405052017366346  0.4919661183600253
  0.5097007590486017  0.8412951504542798  0.2648631589899362
  0.3390144859053772 -0.0053370051201003  0.5057718507801644
  0.3605077949374688  0.2988533849320432  0.0490817834181518
  0.8370907013773550  0.4909025361262884  0.7061435240248198
  0.3601283370158816  0.6965151785404197 -0.0344909308747842
  0.1671084516172814  0.5083690148015627  0.7789485166795579
  0.8296296301551385  0.5033698137481903  0.2883249975357845
  0.1552280865221547  0.8103969163798975  0.7734266144648240
  0.6496096804193069  0.0168316203185048  0.4945280859620982
  0.4917310931513365  0.1570121528675348  0.7417309732737973
 -0.0211919984092221  0.3597779925129516 -0.0004525479762403
  0.6371179810314740  0.6595047369584450  0.5318475690282921
  0.1734696108791154  0.4933413128627648  0.2136423639003004
  0.4929526129162083  0.1294208932048003  0.2686194947029224
  0.0255371722517794  0.3719540011549242  0.5026195020402511
  0.5089050504748298  0.8652018486066435  0.7309918990615729
  0.3301759677927368  0.3360437300838705  0.4798289709109930
  0.4867463669141092  0.5279807469796892  0.2316318276022359
  0.3336636371236656  0.6798018083884997  0.5271704857026492
  0.1720460449759278  0.1954068273097558  0.7688068410448557
  0.6785166307139834  0.3377962632113878  0.0045592986111401
  0.8331019302373781  0.8244519836700629  0.7039213319256158
  0.4723902266352112  0.4727406740473051  0.7799065880090768
  0.8520328565166640  0.1808385710561892  0.2765732318081848
 -0.0193647636581637 -0.0076018202078162 -0.0077250775291221
  0.0378251994755276 -0.0186642036938419  0.5074874392165422
  0.1556033022079043  0.1755983650190926  0.2473250451110288
 -0.0278383463297299  0.6468477859883601  0.0001413524513686
  0.1760639405251129  0.8038320913548916  0.2214240882515292
  0.3413801897135344 -0.0061042626606266 -0.0071223702063365
  0.8479662217087534  0.1862439041812300  0.7230404178344580
 
  0.00000000E+00  0.00000000E+00  0.00000000E+00
  0.00000000E+00  0.00000000E+00  0.00000000E+00
  0.00000000E+00  0.00000000E+00  0.00000000E+00
  0.00000000E+00  0.00000000E+00  0.00000000E+00
  0.00000000E+00  0.00000000E+00  0.00000000E+00
  0.00000000E+00  0.00000000E+00  0.00000000E+00
  0.00000000E+00  0.00000000E+00  0.00000000E+00
  0.00000000E+00  0.00000000E+00  0.00000000E+00
  0.00000000E+00  0.00000000E+00  0.00000000E+00
  0.00000000E+00  0.00000000E+00  0.00000000E+00
  0.00000000E+00  0.00000000E+00  0.00000000E+00
  0.00000000E+00  0.00000000E+00  0.00000000E+00
  0.00000000E+00  0.00000000E+00  0.00000000E+00
  0.00000000E+00  0.00000000E+00  0.00000000E+00
  0.00000000E+00  0.00000000E+00  0.00000000E+00
  0.00000000E+00  0.00000000E+00  0.00000000E+00
  0.00000000E+00  0.00000000E+00  0.00000000E+00
  0.00000000E+00  0.00000000E+00  0.00000000E+00
  0.00000000E+00  0.00000000E+00  0.00000000E+00
  0.00000000E+00  0.00000000E+00  0.00000000E+00
  0.00000000E+00  0.00000000E+00  0.00000000E+00
  0.00000000E+00  0.00000000E+00  0.00000000E+00
  0.00000000E+00  0.00000000E+00  0.00000000E+00
  0.00000000E+00  0.00000000E+00  0.00000000E+00
  0.00000000E+00  0.00000000E+00  0.00000000E+00
  0.00000000E+00  0.00000000E+00  0.00000000E+00
  0.00000000E+00  0.00000000E+00  0.00000000E+00
  0.00000000E+00  0.00000000E+00  0.00000000E+00
  0.00000000E+00  0.00000000E+00  0.00000000E+00
  0.00000000E+00  0.00000000E+00  0.00000000E+00
  0.00000000E+00  0.00000000E+00  0.00000000E+00
  0.00000000E+00  0.00000000E+00  0.00000000E+00
  0.00000000E+00  0.00000000E+00  0.00000000E+00
  0.00000000E+00  0.00000000E+00  0.00000000E+00
  0.00000000E+00  0.00000000E+00  0.00000000E+00
  0.00000000E+00  0.00000000E+00  0.00000000E+00
