title                                   
    1.000000000000000     
     9.4546605613215497    0.0865431215160416    0.0373302613499401
     0.0859719454737146    9.4443958831509960    0.0213595367400710
     0.0249904054664456    0.0140203564107950    6.3665365450286293
   Hf   Mo   Nb   Ti   V 
     1     2     6    12    15
Direct
  0.6634783748509923  0.3356967400768859  0.5000578482116206
  0.0006628226705051  0.3400057752135134  0.4960695640729684
 -0.0020794654986364 -0.0046085831352330  0.4906577869820002
  0.6572587650604504 -0.0052546118502701  0.5004095077876516
 -0.0000670268750530 -0.0010122390398894  0.0113397312688905
  0.1628099662807349  0.8407413446529470  0.7471748004315584
  0.6643872603583731 -0.0120704284830301 -0.0014014561550063
  0.6800942040757764  0.3358985039950376  0.0020158671909852
  0.3431212010027634  0.3339820392695280  0.5047725533008821
  0.3303359140739483 -0.0069576839251991  0.0042891292790277
  0.0070858301492520  0.3363344910905639  0.0028711062012097
 -0.0110476662153110  0.6646222318694518  0.0000659786528722
  0.1769662146279619  0.5017705196239008  0.2407762009227391
 -0.0042920851601933  0.6654970207876101  0.5034960905148562
  0.8456495314290851  0.1603145638519234  0.7439347088015128
  0.4908026529024374  0.5125910670744735  0.2305476506410457
  0.6787091822373562  0.6673607856111191  0.0012453755666375
  0.1664576213431817  0.1677741855411919  0.7304191902023894
  0.4876482589988285  0.5115209218004128  0.7747568840530155
  0.4892169534074191  0.1648570673047501  0.2249946401018348
  0.3276454855860209  0.6800664110618404  0.5015041028629303
  0.8453495618550374  0.1595495333730687  0.2566599179976174
  0.8465680012784196  0.4967539773781678  0.2665875422234403
  0.8425560286760670  0.4929390118031286  0.7394817664567195
  0.4984660249651450  0.8257950094058351  0.2550608532383022
  0.5013998154950821  0.8219914876347579  0.7462447595899766
  0.3346889236730565 -0.0092618622722671  0.4873449989004160
  0.1759711417720603  0.4938124835904960  0.7541703158869746
  0.8256569597374067  0.8334959238001188  0.2660970684945346
  0.4916613202702445  0.1648385783154159  0.7699193088000008
  0.3314598328339176  0.6899842104996349 -0.0012596616084585
  0.3167423329634724  0.3259500802043668 -0.0099908667366709
  0.8226830379288520  0.8359338094017895  0.7374732690314393
  0.1647075444724114  0.8401816972911440  0.2548123152927163
  0.1700958673809497  0.1696010552505187  0.2633850535392964
  0.6771496113919838  0.6693048819322966  0.5040160980020730
 
  0.00000000E+00  0.00000000E+00  0.00000000E+00
  0.00000000E+00  0.00000000E+00  0.00000000E+00
  0.00000000E+00  0.00000000E+00  0.00000000E+00
  0.00000000E+00  0.00000000E+00  0.00000000E+00
  0.00000000E+00  0.00000000E+00  0.00000000E+00
  0.00000000E+00  0.00000000E+00  0.00000000E+00
  0.00000000E+00  0.00000000E+00  0.00000000E+00
  0.00000000E+00  0.00000000E+00  0.00000000E+00
  0.00000000E+00  0.00000000E+00  0.00000000E+00
  0.00000000E+00  0.00000000E+00  0.00000000E+00
  0.00000000E+00  0.00000000E+00  0.00000000E+00
  0.00000000E+00  0.00000000E+00  0.00000000E+00
  0.00000000E+00  0.00000000E+00  0.00000000E+00
  0.00000000E+00  0.00000000E+00  0.00000000E+00
  0.00000000E+00  0.00000000E+00  0.00000000E+00
  0.00000000E+00  0.00000000E+00  0.00000000E+00
  0.00000000E+00  0.00000000E+00  0.00000000E+00
  0.00000000E+00  0.00000000E+00  0.00000000E+00
  0.00000000E+00  0.00000000E+00  0.00000000E+00
  0.00000000E+00  0.00000000E+00  0.00000000E+00
  0.00000000E+00  0.00000000E+00  0.00000000E+00
  0.00000000E+00  0.00000000E+00  0.00000000E+00
  0.00000000E+00  0.00000000E+00  0.00000000E+00
  0.00000000E+00  0.00000000E+00  0.00000000E+00
  0.00000000E+00  0.00000000E+00  0.00000000E+00
  0.00000000E+00  0.00000000E+00  0.00000000E+00
  0.00000000E+00  0.00000000E+00  0.00000000E+00
  0.00000000E+00  0.00000000E+00  0.00000000E+00
  0.00000000E+00  0.00000000E+00  0.00000000E+00
  0.00000000E+00  0.00000000E+00  0.00000000E+00
  0.00000000E+00  0.00000000E+00  0.00000000E+00
  0.00000000E+00  0.00000000E+00  0.00000000E+00
  0.00000000E+00  0.00000000E+00  0.00000000E+00
  0.00000000E+00  0.00000000E+00  0.00000000E+00
  0.00000000E+00  0.00000000E+00  0.00000000E+00
  0.00000000E+00  0.00000000E+00  0.00000000E+00
