title                                   
    1.000000000000000     
     9.8284536904815027    0.0626197754009304   -0.0076694903322212
     0.0634826056323328   10.0861082363088936    0.0497290842885534
    -0.0045218866342980    0.0333138740872394    6.8204513825973052
   Hf   Mo   Nb   Ti   Zr
    12     6     2    15     1
Direct
  0.1734401015590741  0.1769789256422206  0.7406141448596557
  0.8336152392923724  0.8324262723813353  0.2337952405970506
  0.5031201179429448  0.8532383664002609  0.7898012344076866
  0.5000129242667471  0.1715156119867681  0.7489024531349469
  0.6462977196053569  0.6783986327209526  0.5038377651967719
  0.8371343057004659  0.8367881144710729  0.7619823617975403
  0.3371777009940725  0.6488489153543187  0.0034432639578192
  0.8325695484919368  0.1664095619321172  0.7450162734242647
  0.0247895342564816 -0.0065376727610332  0.4744685145059963
  0.8276926899008712  0.1682892823019284  0.2569616036046776
  0.0034915363938671  0.3499942252173821  0.0068125114136761
  0.6684982590559299  0.3578146820597974 -0.0054017646741334
  0.1684186899018564  0.5005683996558969  0.2700767725646502
  0.0014379625252431  0.6608768640809206  0.4971905603398152
  0.6663769604297992  0.3345944213764731  0.4961108782641421
  0.6697201798057354  0.0139870077387843  0.0070516055312592
  0.0027942232200870  0.3386033997299384  0.4957721725581635
  0.3317834640206938  0.3394257569137733  0.4887467677775777
  0.3061045475716289  0.0001895056111331  0.0291894405621488
  0.8336234831811622  0.5002230966796267  0.2794870451907517
  0.4858764708532211  0.4792443998994471  0.7117054508771716
  0.0252740332973165  0.0051662457441415  0.0248644331125526
  0.1630110525157902  0.4991162812132428  0.7248110129535882
  0.6629501242074515  0.6478950371484662 -0.0001610999639913
  0.1513314493948798  0.8181856013417415  0.7570742731318205
  0.5136037577974006  0.8499879669376600  0.2078238453750647
  0.4982653139217005  0.4796180556142670  0.2822524185980086
  0.0026716400551367  0.6385406798650910  0.0036805942636291
  0.5032976692159941  0.1750805878953911  0.2500059958875614
  0.1776202291892668  0.1963266715751776  0.2731967823417955
  0.6498997171100834 -0.0136202379684292  0.4905401304619141
  0.1505373864582139  0.7958454872347223  0.2477957528180595
  0.3286290569891450  0.3535621638771031  0.0108964043335146
  0.8485358160300047  0.5002607586189325  0.7121383771406657
  0.3355876321139359  0.6673610701781578  0.4991655205389028
  0.3348094627341319 -0.0152041386687796  0.4803512631152810
 
  0.00000000E+00  0.00000000E+00  0.00000000E+00
  0.00000000E+00  0.00000000E+00  0.00000000E+00
  0.00000000E+00  0.00000000E+00  0.00000000E+00
  0.00000000E+00  0.00000000E+00  0.00000000E+00
  0.00000000E+00  0.00000000E+00  0.00000000E+00
  0.00000000E+00  0.00000000E+00  0.00000000E+00
  0.00000000E+00  0.00000000E+00  0.00000000E+00
  0.00000000E+00  0.00000000E+00  0.00000000E+00
  0.00000000E+00  0.00000000E+00  0.00000000E+00
  0.00000000E+00  0.00000000E+00  0.00000000E+00
  0.00000000E+00  0.00000000E+00  0.00000000E+00
  0.00000000E+00  0.00000000E+00  0.00000000E+00
  0.00000000E+00  0.00000000E+00  0.00000000E+00
  0.00000000E+00  0.00000000E+00  0.00000000E+00
  0.00000000E+00  0.00000000E+00  0.00000000E+00
  0.00000000E+00  0.00000000E+00  0.00000000E+00
  0.00000000E+00  0.00000000E+00  0.00000000E+00
  0.00000000E+00  0.00000000E+00  0.00000000E+00
  0.00000000E+00  0.00000000E+00  0.00000000E+00
  0.00000000E+00  0.00000000E+00  0.00000000E+00
  0.00000000E+00  0.00000000E+00  0.00000000E+00
  0.00000000E+00  0.00000000E+00  0.00000000E+00
  0.00000000E+00  0.00000000E+00  0.00000000E+00
  0.00000000E+00  0.00000000E+00  0.00000000E+00
  0.00000000E+00  0.00000000E+00  0.00000000E+00
  0.00000000E+00  0.00000000E+00  0.00000000E+00
  0.00000000E+00  0.00000000E+00  0.00000000E+00
  0.00000000E+00  0.00000000E+00  0.00000000E+00
  0.00000000E+00  0.00000000E+00  0.00000000E+00
  0.00000000E+00  0.00000000E+00  0.00000000E+00
  0.00000000E+00  0.00000000E+00  0.00000000E+00
  0.00000000E+00  0.00000000E+00  0.00000000E+00
  0.00000000E+00  0.00000000E+00  0.00000000E+00
  0.00000000E+00  0.00000000E+00  0.00000000E+00
  0.00000000E+00  0.00000000E+00  0.00000000E+00
  0.00000000E+00  0.00000000E+00  0.00000000E+00
