title                                   
    1.000000000000000     
     9.7512286433783490    0.0077882785424456   -0.0062353222768013
     0.0077023784330537    9.7856192154425976    0.0230969510648853
    -0.0043422576931952    0.0155333384727071    6.5309127443311761
   Hf   Ta   V    W 
     7    14    11     4
Direct
  0.3440986894369328  0.0053374111005892 -0.0036616616074055
  0.6421776322686098  0.0114614637653173  0.5027143460937484
  0.0000041123416188  0.3380827094662277  0.4730858309232108
  0.8418679535626219  0.8396513453039668  0.7567663506474956
  0.8438834012510524  0.1600509302724623  0.7483960057674608
  0.1762569972232144  0.4926686078552859  0.7570911873452911
  0.4956885621005371  0.4957996177732180  0.2498787348092284
  0.8331516756792837  0.8360321857468052  0.2465952244186962
  0.6675960983898226  0.6640695307904748  0.5053747081536123
  0.1620491918994555  0.1595657743228327  0.7473729827826503
  0.3334226483486793  0.6753209231633668 -0.0039597435660593
  0.1643703677442370  0.8380035489940943  0.7406729959765789
  0.0003787568010109  0.3302596036506559  0.0204198831144991
  0.4968152304043963  0.8232042476976228  0.2573818898673276
  0.3341738830516600  0.3182635996123107  0.4956245198930318
  0.0030509772497726  0.6574275817773754  0.0188739876562382
  0.6656141645025352  0.3296002053108953  0.0008656108379892
  0.6553328660638313  0.0063133761753428  0.0036002231934533
  0.1679301928260216  0.8376760485265942  0.2602488925144523
 -0.0039660454912659  0.6574762898328124  0.4877629786570908
  0.8279909932602085  0.4984509089838426  0.7555597842576883
  0.8151679870015445  0.5063688841575502  0.2442004138653426
  0.4958897263646240  0.1861779317394274  0.2437882860688890
  0.1670967496602613  0.1539084646251589  0.2523113807869153
  0.4975534365637506  0.1872154340990924  0.7527090736380235
  0.3441020524804206  0.3166725970373789 -0.0070353532834028
  0.0107719010861340  0.0088666722425125  0.0310905763005942
  0.3315222972024255  0.0039566973849600  0.4985392987687547
  0.6636102946643718  0.3306394557458453  0.4978723667383903
  0.4978022969463633  0.8184936848479869  0.7490092107808720
  0.1817738611652427  0.5083891630434080  0.2495533111324208
  0.0109127223410690  0.0088884910564618  0.4683235230162706
  0.6662255772345277  0.6652572040864260 -0.0009214036043294
  0.8314174812481677  0.1646997605497197  0.2455047941408900
  0.3341593802516080  0.6685956253420313  0.5063497577098059
  0.5001058868752511  0.4971540239199489  0.7480400322042857
 
  0.00000000E+00  0.00000000E+00  0.00000000E+00
  0.00000000E+00  0.00000000E+00  0.00000000E+00
  0.00000000E+00  0.00000000E+00  0.00000000E+00
  0.00000000E+00  0.00000000E+00  0.00000000E+00
  0.00000000E+00  0.00000000E+00  0.00000000E+00
  0.00000000E+00  0.00000000E+00  0.00000000E+00
  0.00000000E+00  0.00000000E+00  0.00000000E+00
  0.00000000E+00  0.00000000E+00  0.00000000E+00
  0.00000000E+00  0.00000000E+00  0.00000000E+00
  0.00000000E+00  0.00000000E+00  0.00000000E+00
  0.00000000E+00  0.00000000E+00  0.00000000E+00
  0.00000000E+00  0.00000000E+00  0.00000000E+00
  0.00000000E+00  0.00000000E+00  0.00000000E+00
  0.00000000E+00  0.00000000E+00  0.00000000E+00
  0.00000000E+00  0.00000000E+00  0.00000000E+00
  0.00000000E+00  0.00000000E+00  0.00000000E+00
  0.00000000E+00  0.00000000E+00  0.00000000E+00
  0.00000000E+00  0.00000000E+00  0.00000000E+00
  0.00000000E+00  0.00000000E+00  0.00000000E+00
  0.00000000E+00  0.00000000E+00  0.00000000E+00
  0.00000000E+00  0.00000000E+00  0.00000000E+00
  0.00000000E+00  0.00000000E+00  0.00000000E+00
  0.00000000E+00  0.00000000E+00  0.00000000E+00
  0.00000000E+00  0.00000000E+00  0.00000000E+00
  0.00000000E+00  0.00000000E+00  0.00000000E+00
  0.00000000E+00  0.00000000E+00  0.00000000E+00
  0.00000000E+00  0.00000000E+00  0.00000000E+00
  0.00000000E+00  0.00000000E+00  0.00000000E+00
  0.00000000E+00  0.00000000E+00  0.00000000E+00
  0.00000000E+00  0.00000000E+00  0.00000000E+00
  0.00000000E+00  0.00000000E+00  0.00000000E+00
  0.00000000E+00  0.00000000E+00  0.00000000E+00
  0.00000000E+00  0.00000000E+00  0.00000000E+00
  0.00000000E+00  0.00000000E+00  0.00000000E+00
  0.00000000E+00  0.00000000E+00  0.00000000E+00
  0.00000000E+00  0.00000000E+00  0.00000000E+00
