title                                   
    1.000000000000000     
    10.0164687318240482    0.0199497485852794    0.0080457394921053
     0.0198269877811976    9.9096782168089650   -0.0073484173385908
     0.0054119432479761   -0.0048900124804058    6.6122801665581799
   Hf   Nb   Ta   Ti   W 
     7     7     7     8     7
Direct
  0.3377348690697209  0.3361493425177216  0.5027943817451720
  0.6626847539476380  0.6632628591510149  0.4958622867192523
  0.0044404650989142  0.3272528831785458  0.5063310330220474
  0.3514025662370758  0.6687280937272285  0.0002176400423575
  0.3378076436311535  0.3335978042020237 -0.0005487436378207
  0.3228613461814318  0.0067524291371444  0.4953836907788840
  0.1584828395849290  0.5216065478074234  0.2554969234968372
  0.8355628813212485  0.8358716183802148  0.7486559294673153
  0.6670672349519862  0.3383075213076810 -0.0013161845157072
 -0.0169277763593618  0.6672390905655854 -0.0057476425499732
  0.8291663660009655  0.1629899979810057  0.7528717750633436
  0.6689255582416419 -0.0021688643486971 -0.0018721237363087
 -0.0067512182394221  0.3354349272526366 -0.0062056834443255
  0.8360449706847023  0.4970222563056745  0.2477610912174370
  0.0042277129023795  0.0017102085256474  0.5023113169380469
  0.3344678198063626 -0.0023198411652175  0.0021301160531274
  0.5078787466903590  0.8480489223984627  0.7470484735500449
  0.8290303329943549  0.1613693070316397  0.2491031787084978
  0.1570281597517204  0.5219673456561097  0.7461572542685884
  0.1502325899839071  0.8316127591721720  0.2473619982398849
  0.5144229456500616  0.1620071403050739  0.7458470594142281
  0.1466572391019167  0.1527966515053898  0.2140568629618451
  0.8357765672592948  0.8401292748464712  0.2502620746089531
  0.3538260638271528  0.6595810148141206  0.5055036714776114
  0.5133959155159578  0.8551593565144014  0.2521782095003662
  0.1563380404368338  0.8272806707153260  0.7510661214225290
  0.1531439491460060  0.1508634536569269  0.7877334701542624
  0.5214001290481441  0.1623789721282241  0.2549458386995246
  0.6625465351246758  0.6571868240013486 -0.0047350702053489
  0.8334466133587337  0.4978373002127188  0.7493495541570914
 -0.0159281903868060  0.6668661150226187  0.5060455351853173
  0.6701513006488158  0.3390551445234886  0.5024132040344490
  0.6723621765590240  0.0011660840795101  0.5025576350455609
  0.5092903729035311  0.4878637798789747  0.2526637177739008
 -0.0072307368113260 -0.0065604350800657 -0.0017868437006234
  0.5090332161362767  0.4919534440914561  0.7481022480436313
 
  0.00000000E+00  0.00000000E+00  0.00000000E+00
  0.00000000E+00  0.00000000E+00  0.00000000E+00
  0.00000000E+00  0.00000000E+00  0.00000000E+00
  0.00000000E+00  0.00000000E+00  0.00000000E+00
  0.00000000E+00  0.00000000E+00  0.00000000E+00
  0.00000000E+00  0.00000000E+00  0.00000000E+00
  0.00000000E+00  0.00000000E+00  0.00000000E+00
  0.00000000E+00  0.00000000E+00  0.00000000E+00
  0.00000000E+00  0.00000000E+00  0.00000000E+00
  0.00000000E+00  0.00000000E+00  0.00000000E+00
  0.00000000E+00  0.00000000E+00  0.00000000E+00
  0.00000000E+00  0.00000000E+00  0.00000000E+00
  0.00000000E+00  0.00000000E+00  0.00000000E+00
  0.00000000E+00  0.00000000E+00  0.00000000E+00
  0.00000000E+00  0.00000000E+00  0.00000000E+00
  0.00000000E+00  0.00000000E+00  0.00000000E+00
  0.00000000E+00  0.00000000E+00  0.00000000E+00
  0.00000000E+00  0.00000000E+00  0.00000000E+00
  0.00000000E+00  0.00000000E+00  0.00000000E+00
  0.00000000E+00  0.00000000E+00  0.00000000E+00
  0.00000000E+00  0.00000000E+00  0.00000000E+00
  0.00000000E+00  0.00000000E+00  0.00000000E+00
  0.00000000E+00  0.00000000E+00  0.00000000E+00
  0.00000000E+00  0.00000000E+00  0.00000000E+00
  0.00000000E+00  0.00000000E+00  0.00000000E+00
  0.00000000E+00  0.00000000E+00  0.00000000E+00
  0.00000000E+00  0.00000000E+00  0.00000000E+00
  0.00000000E+00  0.00000000E+00  0.00000000E+00
  0.00000000E+00  0.00000000E+00  0.00000000E+00
  0.00000000E+00  0.00000000E+00  0.00000000E+00
  0.00000000E+00  0.00000000E+00  0.00000000E+00
  0.00000000E+00  0.00000000E+00  0.00000000E+00
  0.00000000E+00  0.00000000E+00  0.00000000E+00
  0.00000000E+00  0.00000000E+00  0.00000000E+00
  0.00000000E+00  0.00000000E+00  0.00000000E+00
  0.00000000E+00  0.00000000E+00  0.00000000E+00
