title                                   
    1.000000000000000     
     9.4509354524225913   -0.0509784943512266    0.0201309468034576
    -0.0511155373268015    9.4556775898781247    0.0158076348001078
     0.0133860893928818    0.0105008494985619    6.3634184195960479
   Mo   Nb   Ti   V    Zr
     2     6    12    15     1
Direct
  0.3375818286516332  0.0064658726543735 -0.0014216857861380
  0.8306222854709397  0.1752311977108367  0.2428411948417694
  0.3337360819755323  0.6686973841203948  0.5144433877477493
  0.4997527298804990  0.4958525018643957  0.2615010956542765
  0.0058223644758257  0.3320107718201510  0.0019161378144862
  0.3373631830572913  0.0074282400777492  0.5049794640306834
  0.8286443921035362  0.8235844441039585  0.7530706649899964
  0.8293586263774364  0.8089249836144009  0.2488833340746026
  0.6601816329806531 -0.0007967730015912  0.4920179877291148
  0.6499776061724591  0.6657468346484230 -0.0026370398107785
  0.8244656760030792  0.1839625894226714  0.7542047955723938
  0.1781553397918433  0.8331241460603027  0.2289302620024224
  0.1627053811131589  0.4968404739594712  0.2602752788541415
  0.3425172496763894  0.6611687064965686 -0.0112204380017524
  0.3383990538207245  0.3397559651629494 -0.0173096329586991
  0.6646016771159582 -0.0015729597602428  0.0073258483809492
  0.6662822673230403  0.3246689368698522  0.4790599020244702
  0.8254961696982934  0.4924570833225615  0.7530650119993141
 -0.0011793093314864  0.0058335787846770  0.0032672863732707
  0.0035460507992864  0.6593985629041690  0.5178552255520077
  0.6604666783239745  0.6661067876214682  0.5016471383110092
  0.4940508908258011  0.8393180787655004  0.7467136472472853
  0.8429267058968041  0.5028094505887103  0.2429666400866262
  0.0026181373172285  0.3366796913240035  0.4963412376608086
  0.4907953519777645  0.1614457398323292  0.2375984836491680
  0.4904287683234339  0.8369405298068409  0.2562159037926495
  0.6585743022602867  0.3251952056852614  0.0154609921751960
  0.1824264075952681  0.1791819460878975  0.2561325186555178
  0.5135668402610560  0.4967582600900816  0.7353448708850738
  0.1735344469965256  0.1817703288164689  0.7450479058118018
  0.3314216950527280  0.3310109569769489  0.5140820008821585
  0.1734883640492560  0.8346176855964695  0.7784068131377644
  0.1607960285430543  0.4949687344675041  0.7400331018046920
  0.4987496671342908  0.1645746424785504  0.7598524269239157
  0.0059309107959741  0.6641010612548160 -0.0174609601307107
  0.0021945174904608  0.0057383597710754  0.5005691980227648
 
  0.00000000E+00  0.00000000E+00  0.00000000E+00
  0.00000000E+00  0.00000000E+00  0.00000000E+00
  0.00000000E+00  0.00000000E+00  0.00000000E+00
  0.00000000E+00  0.00000000E+00  0.00000000E+00
  0.00000000E+00  0.00000000E+00  0.00000000E+00
  0.00000000E+00  0.00000000E+00  0.00000000E+00
  0.00000000E+00  0.00000000E+00  0.00000000E+00
  0.00000000E+00  0.00000000E+00  0.00000000E+00
  0.00000000E+00  0.00000000E+00  0.00000000E+00
  0.00000000E+00  0.00000000E+00  0.00000000E+00
  0.00000000E+00  0.00000000E+00  0.00000000E+00
  0.00000000E+00  0.00000000E+00  0.00000000E+00
  0.00000000E+00  0.00000000E+00  0.00000000E+00
  0.00000000E+00  0.00000000E+00  0.00000000E+00
  0.00000000E+00  0.00000000E+00  0.00000000E+00
  0.00000000E+00  0.00000000E+00  0.00000000E+00
  0.00000000E+00  0.00000000E+00  0.00000000E+00
  0.00000000E+00  0.00000000E+00  0.00000000E+00
  0.00000000E+00  0.00000000E+00  0.00000000E+00
  0.00000000E+00  0.00000000E+00  0.00000000E+00
  0.00000000E+00  0.00000000E+00  0.00000000E+00
  0.00000000E+00  0.00000000E+00  0.00000000E+00
  0.00000000E+00  0.00000000E+00  0.00000000E+00
  0.00000000E+00  0.00000000E+00  0.00000000E+00
  0.00000000E+00  0.00000000E+00  0.00000000E+00
  0.00000000E+00  0.00000000E+00  0.00000000E+00
  0.00000000E+00  0.00000000E+00  0.00000000E+00
  0.00000000E+00  0.00000000E+00  0.00000000E+00
  0.00000000E+00  0.00000000E+00  0.00000000E+00
  0.00000000E+00  0.00000000E+00  0.00000000E+00
  0.00000000E+00  0.00000000E+00  0.00000000E+00
  0.00000000E+00  0.00000000E+00  0.00000000E+00
  0.00000000E+00  0.00000000E+00  0.00000000E+00
  0.00000000E+00  0.00000000E+00  0.00000000E+00
  0.00000000E+00  0.00000000E+00  0.00000000E+00
  0.00000000E+00  0.00000000E+00  0.00000000E+00
