title                                   
    1.000000000000000     
     9.8190349518550288   -0.0282561870778375    0.0287987416969973
    -0.0282358212690462    9.8043672789272840   -0.0036128944018879
     0.0192141386797089   -0.0023824185261307    6.5611095095695271
   Hf   Mo   Ta   Ti   W 
     7     7     7     7     8
Direct
  0.1621688451290664  0.1659405873246332  0.2518053008838963
  0.1611504162247222  0.4996507359183124  0.7450039617018356
  0.8337680123684941  0.8294142551640987  0.2468529335748946
  0.8416424971650774  0.1579599752268049  0.2464255547007141
  0.1653549411759927  0.8318319225371433  0.2528591765298928
  0.6604016659252543  0.3327767552078217 -0.0030073818748721
  0.6609002376931448  0.3311797442235154  0.5079390215249968
  0.0003659130677481  0.6656340791252759 -0.0028017075687453
  0.6617395166963522  0.6648490821937756 -0.0027287584881328
 -0.0075804068360075  0.6658962494786624  0.5054032248453509
  0.4947955883873087  0.1620987176580591  0.7487290634931270
  0.4939591739826440  0.1636978965694512  0.2533756438099744
  0.6604618893121602 -0.0025748650869412 -0.0062937049590410
 -0.0032869551678997 -0.0044841831577480  0.5098373125461835
  0.1591288472494105  0.4955726546219303  0.2527860916165561
  0.6586801292124994  0.6681930959881117  0.5137771622575185
  0.6590139005251670 -0.0013640602563540  0.5120524695441960
  0.3437520931342685  0.3289332669760462 -0.0026197762281380
  0.5044973237010398  0.8314166130883277  0.2439833168061866
  0.1611557372172193  0.1690299881385000  0.7417628664840207
  0.1608357535688503  0.8373053645311344  0.7433477167217065
  0.3454960263412054  0.6715559684549540  0.5216181395735571
  0.8444455715610771  0.5093205526295336  0.2451633680925647
  0.4889322709001806  0.5113004313598514  0.2498768456514784
  0.3436181341665895  0.0059755580544222 -0.0132495282054393
  0.8456506641476540  0.5103390020703321  0.7608965346983136
  0.8456343843725618  0.1549025901347059  0.7538528957033034
  0.3430250945432735  0.6715848471905848 -0.0252758650837268
  0.8354622705612647  0.8316346246984303  0.7562411068291841
  0.4961094318600223  0.5028305358428936  0.7509004884354467
  0.3428267768977503  0.0019297905369074  0.5066195706583277
 -0.0104840089048903  0.3361800304907702  0.5014256538270599
  0.0037180112313494 -0.0050468504916808 -0.0148783185671326
 -0.0011929665432074  0.3343114507457755 -0.0030158550593546
  0.3392639902508859  0.3337730903536035  0.4971572932284799
  0.5045892288817713  0.8364505024583564  0.7541781822958160
 
  0.00000000E+00  0.00000000E+00  0.00000000E+00
  0.00000000E+00  0.00000000E+00  0.00000000E+00
  0.00000000E+00  0.00000000E+00  0.00000000E+00
  0.00000000E+00  0.00000000E+00  0.00000000E+00
  0.00000000E+00  0.00000000E+00  0.00000000E+00
  0.00000000E+00  0.00000000E+00  0.00000000E+00
  0.00000000E+00  0.00000000E+00  0.00000000E+00
  0.00000000E+00  0.00000000E+00  0.00000000E+00
  0.00000000E+00  0.00000000E+00  0.00000000E+00
  0.00000000E+00  0.00000000E+00  0.00000000E+00
  0.00000000E+00  0.00000000E+00  0.00000000E+00
  0.00000000E+00  0.00000000E+00  0.00000000E+00
  0.00000000E+00  0.00000000E+00  0.00000000E+00
  0.00000000E+00  0.00000000E+00  0.00000000E+00
  0.00000000E+00  0.00000000E+00  0.00000000E+00
  0.00000000E+00  0.00000000E+00  0.00000000E+00
  0.00000000E+00  0.00000000E+00  0.00000000E+00
  0.00000000E+00  0.00000000E+00  0.00000000E+00
  0.00000000E+00  0.00000000E+00  0.00000000E+00
  0.00000000E+00  0.00000000E+00  0.00000000E+00
  0.00000000E+00  0.00000000E+00  0.00000000E+00
  0.00000000E+00  0.00000000E+00  0.00000000E+00
  0.00000000E+00  0.00000000E+00  0.00000000E+00
  0.00000000E+00  0.00000000E+00  0.00000000E+00
  0.00000000E+00  0.00000000E+00  0.00000000E+00
  0.00000000E+00  0.00000000E+00  0.00000000E+00
  0.00000000E+00  0.00000000E+00  0.00000000E+00
  0.00000000E+00  0.00000000E+00  0.00000000E+00
  0.00000000E+00  0.00000000E+00  0.00000000E+00
  0.00000000E+00  0.00000000E+00  0.00000000E+00
  0.00000000E+00  0.00000000E+00  0.00000000E+00
  0.00000000E+00  0.00000000E+00  0.00000000E+00
  0.00000000E+00  0.00000000E+00  0.00000000E+00
  0.00000000E+00  0.00000000E+00  0.00000000E+00
  0.00000000E+00  0.00000000E+00  0.00000000E+00
  0.00000000E+00  0.00000000E+00  0.00000000E+00
