title                                   
    1.000000000000000     
     9.7041950351817192   -0.0986542858725387    0.0697935356569594
    -0.0984489506806561    9.6926799818193956   -0.0025930331378968
     0.0465579526390965   -0.0015462824259646    6.4870884309584733
   Hf   Mo   V 
    12    12    12
Direct
  0.3349583692882054  0.3329515596975612  0.0091504047244921
  0.8263293680904770  0.1797936168503866  0.2493889235247010
  0.6716242351149082  0.6607670307276790  0.5050869239731762
 -0.0016948486750872 -0.0016268837676027 -0.0003121524399577
  0.1845650481823136  0.8259624248505313  0.7221136500708965
  0.6628537198618992 -0.0044154245136653 -0.0184658571041852
  0.4720069613936802  0.8282084872825455  0.2621927307339741
  0.1769479500361096  0.5292557013169004  0.2750151491655209
  0.1747942537792911  0.1644022132294954  0.7341102512013278
  0.6676566417249665  0.6614795618418077  0.0018867557715229
 -0.0066795687006842  0.6687692393447321  0.0054460118467917
  0.0002382898756496  0.3443104787006749  0.5178247925023521
  0.5010611874297117  0.4877585610639801  0.7531088202328885
  0.8430749951635648  0.8358850672203008  0.7355451562119443
  0.6620174671649355  0.3313739914642618  0.5110437299277341
  0.8247243307828021  0.1701689711528094  0.7430549765107303
  0.6615127429631960 -0.0002588543807725  0.5012014064354594
  0.1687962488715797  0.1638674984750326  0.2613991732510335
  0.5009887570664084  0.4899984791755060  0.2594800068788298
  0.4989243783459554  0.1607109326144602  0.2543001307495812
  0.8315113270895720  0.8451619467927166  0.2629157345381973
  0.3364954118386619  0.0057473090328358 -0.0046636897869953
  0.1701570576558764  0.8370841601441394  0.2553029431022625
  0.8340856971408667  0.4937229833855121  0.7604245432289006
 -0.0184004845927647  0.6756076256722282  0.5111950847349187
  0.4860636348281558  0.8383931286782054  0.7392415405368918
 -0.0104226112125593  0.3494818960558070 -0.0115808663882054
  0.3459845416903257  0.3329785201544753  0.4941248987931010
  0.3435105530484214  0.6542470795400968 -0.0224864791116050
  0.6591984736569296  0.3368205848953311 -0.0040824943810933
  0.4961502048187435  0.1610268949263918  0.7317322368889863
  0.3612866945093137  0.6375995520841392  0.5365583982082309
  0.1776237904926773  0.5131925056073147  0.7556301568078803
  0.3367611122800084  0.0197090621217408  0.4822437623310508
  0.8273563719165943  0.4757426335390308  0.2484033019535930
 -0.0020623029207062 -0.0058785349765872  0.4824699443750723
 
  0.00000000E+00  0.00000000E+00  0.00000000E+00
  0.00000000E+00  0.00000000E+00  0.00000000E+00
  0.00000000E+00  0.00000000E+00  0.00000000E+00
  0.00000000E+00  0.00000000E+00  0.00000000E+00
  0.00000000E+00  0.00000000E+00  0.00000000E+00
  0.00000000E+00  0.00000000E+00  0.00000000E+00
  0.00000000E+00  0.00000000E+00  0.00000000E+00
  0.00000000E+00  0.00000000E+00  0.00000000E+00
  0.00000000E+00  0.00000000E+00  0.00000000E+00
  0.00000000E+00  0.00000000E+00  0.00000000E+00
  0.00000000E+00  0.00000000E+00  0.00000000E+00
  0.00000000E+00  0.00000000E+00  0.00000000E+00
  0.00000000E+00  0.00000000E+00  0.00000000E+00
  0.00000000E+00  0.00000000E+00  0.00000000E+00
  0.00000000E+00  0.00000000E+00  0.00000000E+00
  0.00000000E+00  0.00000000E+00  0.00000000E+00
  0.00000000E+00  0.00000000E+00  0.00000000E+00
  0.00000000E+00  0.00000000E+00  0.00000000E+00
  0.00000000E+00  0.00000000E+00  0.00000000E+00
  0.00000000E+00  0.00000000E+00  0.00000000E+00
  0.00000000E+00  0.00000000E+00  0.00000000E+00
  0.00000000E+00  0.00000000E+00  0.00000000E+00
  0.00000000E+00  0.00000000E+00  0.00000000E+00
  0.00000000E+00  0.00000000E+00  0.00000000E+00
  0.00000000E+00  0.00000000E+00  0.00000000E+00
  0.00000000E+00  0.00000000E+00  0.00000000E+00
  0.00000000E+00  0.00000000E+00  0.00000000E+00
  0.00000000E+00  0.00000000E+00  0.00000000E+00
  0.00000000E+00  0.00000000E+00  0.00000000E+00
  0.00000000E+00  0.00000000E+00  0.00000000E+00
  0.00000000E+00  0.00000000E+00  0.00000000E+00
  0.00000000E+00  0.00000000E+00  0.00000000E+00
  0.00000000E+00  0.00000000E+00  0.00000000E+00
  0.00000000E+00  0.00000000E+00  0.00000000E+00
  0.00000000E+00  0.00000000E+00  0.00000000E+00
  0.00000000E+00  0.00000000E+00  0.00000000E+00
