title                                   
    1.000000000000000     
     9.7400824699659818    0.0364552847808757   -0.0266042316787634
     0.0364704674856994    9.7382119188704550   -0.0414517973616966
    -0.0176580074917977   -0.0275664946529634    6.4874793547185030
   Hf   Mo   Nb   Ta   V 
     1    12    15     6     2
Direct
  0.5015768636007005  0.8323487797402678  0.2538171823353636
  0.0009222410786541  0.6664276531973852 -0.0005086786219446
  0.6642380563787552  0.3361647474958056  0.0010251984877723
  0.5019134736131402  0.4985768497172546  0.2452517425333830
  0.1682713465467703  0.1666870573815767  0.2466783213339826
  0.6650846789901151  0.6632096126882391 -0.0009141965366343
  0.1645278608795993  0.4958198188926440  0.7525783066909690
  0.8339123625556057  0.8300665905806185  0.2522381779470068
  0.6654625767367233  0.6635582886425755  0.5028890424585835
  0.3308905969922545  0.3356947310969597 -0.0031128598183296
  0.3300851648278288  0.0008242789816414  0.5017632162377192
  0.1663212817921412  0.8325601523091289  0.7492106992826894
  0.8338885467848326  0.1733651178928859  0.2481379247641699
  0.0013664527284062  0.0034997654746118  0.0059392466591447
  0.1691379050154513  0.1678452590674020  0.7505658944305709
  0.6633737098198659  0.3361874573890644  0.4982699518747338
  0.0004622990321083  0.3319720154700875  0.4959950660896004
  0.6752714605014364  0.0048113793763825  0.4999773874605059
  0.3284649313861899 -0.0000389627430059 -0.0054259972612873
  0.1606154806554808  0.4963807459448908  0.2411566238571015
  0.8283657817317965  0.5039495108075256  0.7564109397625148
  0.6756179275211026  0.0043064853484940  0.0054146336358791
  0.3322608242366210  0.3372520485434842  0.4984472903951566
  0.5052816449505223  0.8289762461268062  0.7482921338614481
  0.8356920362842687  0.1730374094447669  0.7556995864412580
  0.0025240257737925  0.6682163916536796  0.5024026921421045
  0.4983422728900505  0.1707474724013386  0.7512495388011220
  0.0008769837912823  0.0008026043237590  0.4986641933310278
  0.8300411908207912  0.5029587808872099  0.2422800049557606
  0.3313898153391936  0.6576219043403347 -0.0112733507342943
  0.3312353445312082  0.6571366062260570  0.5078604781370343
  0.1681169680802702  0.8324602003602453  0.2500846198614294
  0.4974255398152841  0.1679717363337895  0.2474245898186082
  0.8335169921399750  0.8283854589480543  0.7550390430171028
  0.5031898684968222  0.4988103900779488  0.7536465116100165
  0.0003354936809595  0.3314054155800908  0.0028248447587296
 
  0.00000000E+00  0.00000000E+00  0.00000000E+00
  0.00000000E+00  0.00000000E+00  0.00000000E+00
  0.00000000E+00  0.00000000E+00  0.00000000E+00
  0.00000000E+00  0.00000000E+00  0.00000000E+00
  0.00000000E+00  0.00000000E+00  0.00000000E+00
  0.00000000E+00  0.00000000E+00  0.00000000E+00
  0.00000000E+00  0.00000000E+00  0.00000000E+00
  0.00000000E+00  0.00000000E+00  0.00000000E+00
  0.00000000E+00  0.00000000E+00  0.00000000E+00
  0.00000000E+00  0.00000000E+00  0.00000000E+00
  0.00000000E+00  0.00000000E+00  0.00000000E+00
  0.00000000E+00  0.00000000E+00  0.00000000E+00
  0.00000000E+00  0.00000000E+00  0.00000000E+00
  0.00000000E+00  0.00000000E+00  0.00000000E+00
  0.00000000E+00  0.00000000E+00  0.00000000E+00
  0.00000000E+00  0.00000000E+00  0.00000000E+00
  0.00000000E+00  0.00000000E+00  0.00000000E+00
  0.00000000E+00  0.00000000E+00  0.00000000E+00
  0.00000000E+00  0.00000000E+00  0.00000000E+00
  0.00000000E+00  0.00000000E+00  0.00000000E+00
  0.00000000E+00  0.00000000E+00  0.00000000E+00
  0.00000000E+00  0.00000000E+00  0.00000000E+00
  0.00000000E+00  0.00000000E+00  0.00000000E+00
  0.00000000E+00  0.00000000E+00  0.00000000E+00
  0.00000000E+00  0.00000000E+00  0.00000000E+00
  0.00000000E+00  0.00000000E+00  0.00000000E+00
  0.00000000E+00  0.00000000E+00  0.00000000E+00
  0.00000000E+00  0.00000000E+00  0.00000000E+00
  0.00000000E+00  0.00000000E+00  0.00000000E+00
  0.00000000E+00  0.00000000E+00  0.00000000E+00
  0.00000000E+00  0.00000000E+00  0.00000000E+00
  0.00000000E+00  0.00000000E+00  0.00000000E+00
  0.00000000E+00  0.00000000E+00  0.00000000E+00
  0.00000000E+00  0.00000000E+00  0.00000000E+00
  0.00000000E+00  0.00000000E+00  0.00000000E+00
  0.00000000E+00  0.00000000E+00  0.00000000E+00
