title                                   
    1.000000000000000     
     9.3737052764017328    0.0428937085561485    0.0033654004640655
     0.0429760731648862    9.3783422530978129    0.0248056520447686
     0.0022307170432274    0.0164638397498506    6.2707800330598849
   Mo   Ti   V 
    12    12    12
Direct
  0.8387469348573802  0.1586005499541172  0.7541418187589414
  0.3369207407048867  0.6704728570176417  0.5025119566630302
  0.4981696409194468  0.5047968896270606  0.7543985201184930
  0.3365164508676796  0.6732514869202754 -0.0052526419183350
  0.0004584610028000 -0.0024452445972619 -0.0040979596400113
  0.4946676559607985  0.8305730970672139  0.2480278814385435
  0.1715436571932752  0.1641918537518433  0.7503965112003208
  0.4954909147140812  0.1657195533596137  0.7534932968926878
  0.3347074143486732  0.0017769610256539  0.5014776713458069
 -0.0014375515354982 -0.0034102198445364  0.5016551865893469
  0.1738239567197525  0.1635431991201287  0.2481463830175309
  0.8345640099706076  0.8257305005024839  0.2502264062891124
  0.0049554184327811  0.3316486474522900 -0.0049259335975629
  0.8225936254762616  0.5009053489552076  0.2423314229138189
  0.5028218111149877  0.4966256517626896  0.2482151591138218
  0.1628904563895687  0.8321360120004582  0.2488829295746265
  0.0076824497159742  0.3295131939505286  0.5072227345244027
  0.1683882497155192  0.5115920519004206  0.7495499814782910
  0.6676751703639937  0.3344111588162050  0.5330936743045188
  0.6629217970353326 -0.0094330756235064 -0.0069607402509186
  0.5037553352563363  0.1788629197747550  0.2463602880587520
  0.6655590301194318 -0.0113850242364479  0.5058133656428891
  0.8311950879196883  0.1674643314390717  0.2468084873613929
  0.1770828273606392  0.5112826795683137  0.2512887975179582
 -0.0133724486921217  0.6698996166141821 -0.0096705716659800
 -0.0144745109122959  0.6681094314615330  0.5105740067082835
  0.6683747182421692  0.6734936386247502 -0.0053655458367470
  0.1627880275415090  0.8324121537479242  0.7469780286507745
  0.6689553151066449  0.6705106874579201  0.5065289762379238
  0.8355751582277250  0.5136253051172862  0.7620612821585312
  0.3364907707431257  0.3299273969700912  0.5117734050536609
  0.6694068694186845  0.3333060888793613 -0.0284560611501241
  0.4900663763090131  0.8277509505217028  0.7483888463006645
  0.3340248639523965  0.0061481639983848 -0.0072484114673164
  0.8369816818596981  0.8211421267043235  0.7499691034214304
  0.3334896335790525  0.3272490602383212 -0.0083382558085597
 
  0.00000000E+00  0.00000000E+00  0.00000000E+00
  0.00000000E+00  0.00000000E+00  0.00000000E+00
  0.00000000E+00  0.00000000E+00  0.00000000E+00
  0.00000000E+00  0.00000000E+00  0.00000000E+00
  0.00000000E+00  0.00000000E+00  0.00000000E+00
  0.00000000E+00  0.00000000E+00  0.00000000E+00
  0.00000000E+00  0.00000000E+00  0.00000000E+00
  0.00000000E+00  0.00000000E+00  0.00000000E+00
  0.00000000E+00  0.00000000E+00  0.00000000E+00
  0.00000000E+00  0.00000000E+00  0.00000000E+00
  0.00000000E+00  0.00000000E+00  0.00000000E+00
  0.00000000E+00  0.00000000E+00  0.00000000E+00
  0.00000000E+00  0.00000000E+00  0.00000000E+00
  0.00000000E+00  0.00000000E+00  0.00000000E+00
  0.00000000E+00  0.00000000E+00  0.00000000E+00
  0.00000000E+00  0.00000000E+00  0.00000000E+00
  0.00000000E+00  0.00000000E+00  0.00000000E+00
  0.00000000E+00  0.00000000E+00  0.00000000E+00
  0.00000000E+00  0.00000000E+00  0.00000000E+00
  0.00000000E+00  0.00000000E+00  0.00000000E+00
  0.00000000E+00  0.00000000E+00  0.00000000E+00
  0.00000000E+00  0.00000000E+00  0.00000000E+00
  0.00000000E+00  0.00000000E+00  0.00000000E+00
  0.00000000E+00  0.00000000E+00  0.00000000E+00
  0.00000000E+00  0.00000000E+00  0.00000000E+00
  0.00000000E+00  0.00000000E+00  0.00000000E+00
  0.00000000E+00  0.00000000E+00  0.00000000E+00
  0.00000000E+00  0.00000000E+00  0.00000000E+00
  0.00000000E+00  0.00000000E+00  0.00000000E+00
  0.00000000E+00  0.00000000E+00  0.00000000E+00
  0.00000000E+00  0.00000000E+00  0.00000000E+00
  0.00000000E+00  0.00000000E+00  0.00000000E+00
  0.00000000E+00  0.00000000E+00  0.00000000E+00
  0.00000000E+00  0.00000000E+00  0.00000000E+00
  0.00000000E+00  0.00000000E+00  0.00000000E+00
  0.00000000E+00  0.00000000E+00  0.00000000E+00
