title                                   
    1.000000000000000     
    10.0250706520006236   -0.0047080855642275   -0.0188058180492475
    -0.0045128763271445    9.9575462884686221    0.1912116155542837
    -0.0124133195506156    0.1275056465223929    6.6780844076833770
   Hf   Mo
    18    18
Direct
  0.4888952751523787  0.1745941428780971  0.2491604194788415
  0.6647060946243180  0.0038789125609178  0.5255835634625070
  0.6662412331102481  0.6790964861735680 -0.0075328782893270
  0.8379192505321156  0.8293703879357410  0.2868889831242769
  0.6712763388831066  0.3288846124617100  0.5020461325443659
  0.1791238714953980  0.1624561306815981  0.2681129206831431
  0.1731483886233528  0.5004093738557868  0.7461963305440562
  0.3451930052237809  0.6734770291156067  0.4856225078695546
  0.6641008262399010  0.0011712192094787 -0.0003990467899640
 -0.0111816617258360  0.3248942405811285  0.5004619927191573
  0.3331351479753235 -0.0072194745509705 -0.0036589866270376
 -0.0023374329805029  0.0045612589983072  0.0007563764360936
 -0.0141444084476555  0.3229269788238373  0.0055629592405218
 -0.0074336982763038  0.6707164827858213  0.0101692545771394
  0.1631550794872050  0.8324134327943707  0.7348855432692726
  0.8279999142262678  0.5156836676475771  0.7351453756820524
  0.1835199406887527  0.4925307096371378  0.2346663283084534
  0.4966622942320525  0.4907777347408163  0.2257449121134482
  0.6679396631731186  0.3336434746268601 -0.0106059155951809
  0.3416115162169737 -0.0081493739838352  0.5089788382607837
  0.8436547418891646  0.8338415306429868  0.7382343783880786
  0.0073242199435428  0.6673629721734536  0.4873050759144321
  0.4919611467946234  0.8341161442611894  0.7462184834123087
  0.8264166444970843  0.1723473470016092  0.7614535522391761
  0.3362287822846466  0.3259566387687105 -0.0197880260133435
 -0.0045805586529240  0.0062053518637324  0.5102933793545692
  0.6536311908396566  0.6679306933175602  0.4960128173648276
  0.8356029558266751  0.1561588989967611  0.2650583365909887
  0.3474405310730072  0.6740394054667348 -0.0154812353685136
  0.3400730338806151  0.3281825048611823  0.5135245538918971
  0.8226933869014430  0.5058433567402472  0.2526750987647342
  0.5034093691450103  0.4979435034180001  0.7463314049402354
  0.4913283998297228  0.1767364001458690  0.7555098698731051
  0.1706789229042610  0.1632614278679365  0.7426254755318386
  0.5046646195292547  0.8300112983098278  0.2556280613939458
  0.1599419748602221  0.8339450991906447  0.2666131627095618
 
  0.00000000E+00  0.00000000E+00  0.00000000E+00
  0.00000000E+00  0.00000000E+00  0.00000000E+00
  0.00000000E+00  0.00000000E+00  0.00000000E+00
  0.00000000E+00  0.00000000E+00  0.00000000E+00
  0.00000000E+00  0.00000000E+00  0.00000000E+00
  0.00000000E+00  0.00000000E+00  0.00000000E+00
  0.00000000E+00  0.00000000E+00  0.00000000E+00
  0.00000000E+00  0.00000000E+00  0.00000000E+00
  0.00000000E+00  0.00000000E+00  0.00000000E+00
  0.00000000E+00  0.00000000E+00  0.00000000E+00
  0.00000000E+00  0.00000000E+00  0.00000000E+00
  0.00000000E+00  0.00000000E+00  0.00000000E+00
  0.00000000E+00  0.00000000E+00  0.00000000E+00
  0.00000000E+00  0.00000000E+00  0.00000000E+00
  0.00000000E+00  0.00000000E+00  0.00000000E+00
  0.00000000E+00  0.00000000E+00  0.00000000E+00
  0.00000000E+00  0.00000000E+00  0.00000000E+00
  0.00000000E+00  0.00000000E+00  0.00000000E+00
  0.00000000E+00  0.00000000E+00  0.00000000E+00
  0.00000000E+00  0.00000000E+00  0.00000000E+00
  0.00000000E+00  0.00000000E+00  0.00000000E+00
  0.00000000E+00  0.00000000E+00  0.00000000E+00
  0.00000000E+00  0.00000000E+00  0.00000000E+00
  0.00000000E+00  0.00000000E+00  0.00000000E+00
  0.00000000E+00  0.00000000E+00  0.00000000E+00
  0.00000000E+00  0.00000000E+00  0.00000000E+00
  0.00000000E+00  0.00000000E+00  0.00000000E+00
  0.00000000E+00  0.00000000E+00  0.00000000E+00
  0.00000000E+00  0.00000000E+00  0.00000000E+00
  0.00000000E+00  0.00000000E+00  0.00000000E+00
  0.00000000E+00  0.00000000E+00  0.00000000E+00
  0.00000000E+00  0.00000000E+00  0.00000000E+00
  0.00000000E+00  0.00000000E+00  0.00000000E+00
  0.00000000E+00  0.00000000E+00  0.00000000E+00
  0.00000000E+00  0.00000000E+00  0.00000000E+00
  0.00000000E+00  0.00000000E+00  0.00000000E+00
