title                                   
    1.000000000000000     
     9.6777630508127626    0.0227777009736840    0.0069903133028791
     0.0227694202283716    9.6842850834939185    0.0042220504995858
     0.0046640132394473    0.0028229633927735    6.4458494935448352
   Hf   Mo   Nb   W 
     3    19    10     4
Direct
  0.5015908272337397  0.5062605127787616  0.7545177626173578
  0.1659279437415766  0.5009099977961858  0.2470508971922843
  0.1650638813870739  0.1660411860926711  0.2491464039207439
  0.1667482536001049  0.1646861124986507  0.7480296096544850
  0.8292217713447690  0.8331898585508065  0.2485185208423628
 -0.0052839904312564  0.3344713522098047  0.5037489440732781
  0.3366694744862698 -0.0038222696291446 -0.0020296360217188
  0.5005792026584055  0.8343924170820468  0.2482325622302331
  0.8310450086114314  0.1636929072801867  0.7474051960465206
  0.5023689692746589  0.1618365876575291  0.7520398624856038
  0.6651116815264766 -0.0008655101621131  0.0015292944541630
  0.1689384611661613  0.8308859761958288  0.2488382504235798
  0.5013893007792104  0.1610376610642924  0.2501296530773744
  0.8306327109716084  0.1647414109630778  0.2499599537562008
  0.3335683781026928  0.6733324075055310  0.0018902981914952
  0.6657205126872391  0.0004080940276917  0.4997593135676952
 -0.0028529961955731  0.6695215751888005 -0.0033637371777297
  0.6691507202227213  0.6713799033231470  0.0056829705465715
  0.1686568344172469  0.5034115737636898  0.7480480153261253
  0.8346621725711607  0.5012669640223139  0.7485545131307593
  0.4994052382635620  0.8343043499896404  0.7544935202112719
  0.4999121003314256  0.5037663895014833  0.2499173442031098
 -0.0049358953885189 -0.0027419825709417 -0.0033458785192084
  0.6688819614275587  0.6708582868005206  0.4956533406082160
  0.3381532273605612  0.3306096593431938  0.5038382594248635
 -0.0021973524722014  0.6694033755284965  0.5033293827648209
  0.3379089980863158  0.3288997928334262 -0.0048609083419664
 -0.0040310626364074 -0.0022664744535588  0.5045844959445953
 -0.0062184823464467  0.3335138535663945 -0.0123914436176846
  0.6701127251341276  0.3291163367195236  0.0034789199190170
  0.3370599078012489 -0.0027899152342093  0.5049236369606087
  0.6700019177086833  0.3297961798609877  0.4961726439324702
  0.3331266678187937  0.6739057430378869  0.5004649785991200
  0.8300162620880521  0.8337045152298453  0.7541511828839489
  0.1679753087883527  0.8314744324691195  0.7544184615344818
  0.8359193598791742  0.5016667391684335  0.2474834151549495
 
  0.00000000E+00  0.00000000E+00  0.00000000E+00
  0.00000000E+00  0.00000000E+00  0.00000000E+00
  0.00000000E+00  0.00000000E+00  0.00000000E+00
  0.00000000E+00  0.00000000E+00  0.00000000E+00
  0.00000000E+00  0.00000000E+00  0.00000000E+00
  0.00000000E+00  0.00000000E+00  0.00000000E+00
  0.00000000E+00  0.00000000E+00  0.00000000E+00
  0.00000000E+00  0.00000000E+00  0.00000000E+00
  0.00000000E+00  0.00000000E+00  0.00000000E+00
  0.00000000E+00  0.00000000E+00  0.00000000E+00
  0.00000000E+00  0.00000000E+00  0.00000000E+00
  0.00000000E+00  0.00000000E+00  0.00000000E+00
  0.00000000E+00  0.00000000E+00  0.00000000E+00
  0.00000000E+00  0.00000000E+00  0.00000000E+00
  0.00000000E+00  0.00000000E+00  0.00000000E+00
  0.00000000E+00  0.00000000E+00  0.00000000E+00
  0.00000000E+00  0.00000000E+00  0.00000000E+00
  0.00000000E+00  0.00000000E+00  0.00000000E+00
  0.00000000E+00  0.00000000E+00  0.00000000E+00
  0.00000000E+00  0.00000000E+00  0.00000000E+00
  0.00000000E+00  0.00000000E+00  0.00000000E+00
  0.00000000E+00  0.00000000E+00  0.00000000E+00
  0.00000000E+00  0.00000000E+00  0.00000000E+00
  0.00000000E+00  0.00000000E+00  0.00000000E+00
  0.00000000E+00  0.00000000E+00  0.00000000E+00
  0.00000000E+00  0.00000000E+00  0.00000000E+00
  0.00000000E+00  0.00000000E+00  0.00000000E+00
  0.00000000E+00  0.00000000E+00  0.00000000E+00
  0.00000000E+00  0.00000000E+00  0.00000000E+00
  0.00000000E+00  0.00000000E+00  0.00000000E+00
  0.00000000E+00  0.00000000E+00  0.00000000E+00
  0.00000000E+00  0.00000000E+00  0.00000000E+00
  0.00000000E+00  0.00000000E+00  0.00000000E+00
  0.00000000E+00  0.00000000E+00  0.00000000E+00
  0.00000000E+00  0.00000000E+00  0.00000000E+00
  0.00000000E+00  0.00000000E+00  0.00000000E+00
