title                                   
    1.000000000000000     
     9.5230846751782376    0.0080718589562454    0.0253887693242608
     0.0085888723934872    9.5472214997495222    0.0862782332260908
     0.0173049368018271    0.0574831307768033    6.4008865577596223
   Cr   Hf   Mo
    12    12    12
Direct
  0.6575912618612277 -0.0013881820792586  0.5362397536109967
 -0.0027708495514098 -0.0072132813708247  0.5034786670347229
  0.6548180265368596  0.6666430136002451  0.5111924572338847
  0.4968552570475142  0.5132940871088093  0.2671637785711193
  0.8311657954519509  0.8311991753691648  0.7464847772706125
  0.3488166940264779  0.0094182269873326 -0.0094565712263716
  0.1681399112857735  0.8294290344613094  0.2631907007723623
  0.4976504132460652  0.1488452095807808  0.7578868534546840
  0.5142153548269204  0.8461900540988752  0.7403536512619863
  0.8225565634773320  0.1529772566882678  0.7528724039661001
  0.3457895178988402  0.0060990260612778  0.4900878312910940
  0.3369981942744535  0.6632180602282044  0.4755232348896389
  0.8236212073168722  0.8302160646645574  0.2673464101300285
  0.6526427682813737  0.3292533694543097  0.5175870441683830
  0.1800411072298964  0.1588173388277862  0.7261035446281554
  0.8304828308402602  0.5128115635476580  0.7494553231891925
  0.5012064931992942  0.8400806239007571  0.2640711445072687
  0.8247158501025627  0.1503414269988976  0.2720392424639967
 -0.0038822862707460  0.3230671530046064  0.0060214625669039
  0.3377103650100192  0.6696211215743151  0.0081862175682393
  0.0019005983017413 -0.0087279849778341 -0.0077334744770738
  0.1843439112794633  0.8398682469662825  0.7178509417528554
  0.3427412437429039  0.3353264320442367  0.0054315729088938
  0.1639547854890026  0.5060781227491589  0.7274973332213788
  0.5030367522802064  0.5150046379296163  0.7464007068507964
  0.1715309586518078  0.1513557738956258  0.2603147484982442
  0.8254727980955225  0.5053095231492982  0.2538436341525865
  0.1632090297289184  0.5036914626626331  0.2526758644192086
  0.0013442057158093  0.6736813675450152  0.4871321084694314
  0.4973041604694550  0.1569245672850648  0.2543312883914288
  0.6621747514554180  0.6719088321723983 -0.0054395610923362
  0.6596401172896200  0.3320912002234744  0.0068542917255499
  0.3420079545397672  0.3379664145772663  0.4839658471455519
 -0.0062843610902105  0.3305639080304610  0.4901764989156097
  0.6666124729080927  0.0022353851944511 -0.0221299487419666
  0.0026461450509440  0.6738017678457796  0.0030002205068412
 
  0.00000000E+00  0.00000000E+00  0.00000000E+00
  0.00000000E+00  0.00000000E+00  0.00000000E+00
  0.00000000E+00  0.00000000E+00  0.00000000E+00
  0.00000000E+00  0.00000000E+00  0.00000000E+00
  0.00000000E+00  0.00000000E+00  0.00000000E+00
  0.00000000E+00  0.00000000E+00  0.00000000E+00
  0.00000000E+00  0.00000000E+00  0.00000000E+00
  0.00000000E+00  0.00000000E+00  0.00000000E+00
  0.00000000E+00  0.00000000E+00  0.00000000E+00
  0.00000000E+00  0.00000000E+00  0.00000000E+00
  0.00000000E+00  0.00000000E+00  0.00000000E+00
  0.00000000E+00  0.00000000E+00  0.00000000E+00
  0.00000000E+00  0.00000000E+00  0.00000000E+00
  0.00000000E+00  0.00000000E+00  0.00000000E+00
  0.00000000E+00  0.00000000E+00  0.00000000E+00
  0.00000000E+00  0.00000000E+00  0.00000000E+00
  0.00000000E+00  0.00000000E+00  0.00000000E+00
  0.00000000E+00  0.00000000E+00  0.00000000E+00
  0.00000000E+00  0.00000000E+00  0.00000000E+00
  0.00000000E+00  0.00000000E+00  0.00000000E+00
  0.00000000E+00  0.00000000E+00  0.00000000E+00
  0.00000000E+00  0.00000000E+00  0.00000000E+00
  0.00000000E+00  0.00000000E+00  0.00000000E+00
  0.00000000E+00  0.00000000E+00  0.00000000E+00
  0.00000000E+00  0.00000000E+00  0.00000000E+00
  0.00000000E+00  0.00000000E+00  0.00000000E+00
  0.00000000E+00  0.00000000E+00  0.00000000E+00
  0.00000000E+00  0.00000000E+00  0.00000000E+00
  0.00000000E+00  0.00000000E+00  0.00000000E+00
  0.00000000E+00  0.00000000E+00  0.00000000E+00
  0.00000000E+00  0.00000000E+00  0.00000000E+00
  0.00000000E+00  0.00000000E+00  0.00000000E+00
  0.00000000E+00  0.00000000E+00  0.00000000E+00
  0.00000000E+00  0.00000000E+00  0.00000000E+00
  0.00000000E+00  0.00000000E+00  0.00000000E+00
  0.00000000E+00  0.00000000E+00  0.00000000E+00
