title                                   
    1.000000000000000     
     9.7282789175220650    0.0061035817298116   -0.0105508571856325
     0.0060638852357545    9.7710222005433494   -0.0102399312808854
    -0.0070196761019927   -0.0068617604172652    6.4949980960134894
   Hf   Nb   Ta   Ti   W 
     4     3     3    11    15
Direct
  0.3296566076264515  0.3319540964274351  0.0125602529807631
  0.8364343870781155  0.4951807870515088  0.2540762085697026
  0.4960531619524510  0.5069731687107392  0.7458030835870672
  0.8306854132964894  0.8349632514150228  0.7535043446403822
  0.6669986385415833  0.6692878799605935  0.0079717418403819
  0.6664874681627331  0.6726313276175216  0.4963526521164180
  0.8335650534068165  0.1619207468392830  0.7524357022790514
  0.5028409607625960  0.5092268720225552  0.2541722234568711
  0.4997698239567178  0.1546167094710731  0.7499753332923529
  0.0040756931307728  0.0019174374255425  0.4980931283421179
  0.5069402638642724  0.1546422447269930  0.2490881228999949
  0.1588764244079704  0.1579421612101429  0.2378174943215749
  0.3198174866433066  0.3319598498335467  0.4852054452963242
  0.4985290035976399  0.8394831498855195  0.7547617225280965
  0.3265202185249083  0.6814497966821883  0.4909406902126298
  0.0078725737029267  0.6689390781319782  0.0048685851016593
  0.6721264634971029  0.3270613450762402 -0.0075491639196700
  0.1664682416325123  0.5060147099962602  0.7464672781921980
  0.0040925559078432  0.3268288038096424  0.5057305509568087
  0.6765147933237367  0.3242929432863361  0.5119240147507940
  0.3268959963129063 -0.0108708302557942  0.4965226268098377
  0.3300239762390532 -0.0024243318836786 -0.0027022073975519
  0.0072247900147721  0.6691270667165171  0.4983815457228530
  0.0017106197697428  0.3322369807235871 -0.0065708403894232
  0.1672194160217421  0.8315178495535838  0.7526220780235122
  0.8364135959925066  0.1640650867796001  0.2464247090132636
  0.1646329672910805  0.1628740181996032  0.7557233222258087
  0.6650911022799524  0.0028337953476423  0.4935279877590644
  0.8335584601381349  0.8345777391680548  0.2540942450443101
  0.1590939218272425  0.5046169243011479  0.2488424434205925
  0.3256423911316093  0.6728363471588862  0.0081548799407698
  0.0024048209296750 -0.0014701300006305  0.0025990120255267
  0.1657007188722215  0.8364926598815270  0.2447201132844782
  0.6657946843546005  0.0037209452939071  0.0076366709039442
  0.4997949379450193  0.8396695601925019  0.2448532830945394
  0.8444723678627957  0.5029099592434223  0.7509707190729566
 
  0.00000000E+00  0.00000000E+00  0.00000000E+00
  0.00000000E+00  0.00000000E+00  0.00000000E+00
  0.00000000E+00  0.00000000E+00  0.00000000E+00
  0.00000000E+00  0.00000000E+00  0.00000000E+00
  0.00000000E+00  0.00000000E+00  0.00000000E+00
  0.00000000E+00  0.00000000E+00  0.00000000E+00
  0.00000000E+00  0.00000000E+00  0.00000000E+00
  0.00000000E+00  0.00000000E+00  0.00000000E+00
  0.00000000E+00  0.00000000E+00  0.00000000E+00
  0.00000000E+00  0.00000000E+00  0.00000000E+00
  0.00000000E+00  0.00000000E+00  0.00000000E+00
  0.00000000E+00  0.00000000E+00  0.00000000E+00
  0.00000000E+00  0.00000000E+00  0.00000000E+00
  0.00000000E+00  0.00000000E+00  0.00000000E+00
  0.00000000E+00  0.00000000E+00  0.00000000E+00
  0.00000000E+00  0.00000000E+00  0.00000000E+00
  0.00000000E+00  0.00000000E+00  0.00000000E+00
  0.00000000E+00  0.00000000E+00  0.00000000E+00
  0.00000000E+00  0.00000000E+00  0.00000000E+00
  0.00000000E+00  0.00000000E+00  0.00000000E+00
  0.00000000E+00  0.00000000E+00  0.00000000E+00
  0.00000000E+00  0.00000000E+00  0.00000000E+00
  0.00000000E+00  0.00000000E+00  0.00000000E+00
  0.00000000E+00  0.00000000E+00  0.00000000E+00
  0.00000000E+00  0.00000000E+00  0.00000000E+00
  0.00000000E+00  0.00000000E+00  0.00000000E+00
  0.00000000E+00  0.00000000E+00  0.00000000E+00
  0.00000000E+00  0.00000000E+00  0.00000000E+00
  0.00000000E+00  0.00000000E+00  0.00000000E+00
  0.00000000E+00  0.00000000E+00  0.00000000E+00
  0.00000000E+00  0.00000000E+00  0.00000000E+00
  0.00000000E+00  0.00000000E+00  0.00000000E+00
  0.00000000E+00  0.00000000E+00  0.00000000E+00
  0.00000000E+00  0.00000000E+00  0.00000000E+00
  0.00000000E+00  0.00000000E+00  0.00000000E+00
  0.00000000E+00  0.00000000E+00  0.00000000E+00
