title                                   
    1.000000000000000     
     9.6969579120764635   -0.0119098156209670    0.0041341130131857
    -0.0118954681300644    9.6821551516393640    0.0034739002347665
     0.0027553998282815    0.0023191593762158    6.4553533911074013
   Cr   Mo   Nb   W    Zr
     3    11    15     4     3
Direct
  0.8406577899553047  0.5092613840056399  0.7469303958489945
  0.8309893933647239  0.8258380156548664  0.7454641797081351
  0.4908757849673062  0.1612487658453598  0.2549529862379493
  0.3311671264853671  0.6708696906053023 -0.0071672625546226
 -0.0016188825606101  0.3374980373051465 -0.0030771745965685
  0.3383963664653623  0.0004449278351461  0.4991970235350587
  0.4937750492096862  0.5077409938364063  0.7467202152619886
 -0.0042583784356857  0.6644838628197439  0.5076979249356814
  0.3316656015092920  0.6707046452213922  0.5044340498749754
  0.8392791528063445  0.5048125533801932  0.2509646933418912
  0.4991428605218856  0.8336099732308094  0.2523100592241468
  0.8385723444978150  0.1625070390989750  0.7520249726657525
  0.1649604588177684  0.5006513278500629  0.7491159118631739
  0.4944236027255132  0.1617214492744932  0.7471904083118673
  0.8386688279996326  0.1639643007697532  0.2498413075841131
  0.8326304300881703  0.8314549196026771  0.2524652197570520
  0.1677598997831628  0.1669793021288496  0.7499979985795943
  0.6634518041315927 -0.0009028655498165  0.5019409078695937
  0.1677713641431753  0.5009200038693804  0.2514966306310133
 -0.0027930486733987  0.3390180006494946  0.5071790657421367
  0.1678831039940349  0.1682838713610598  0.2518969296632028
 -0.0021327068763410 -0.0047497599140684 -0.0049339647534976
  0.3390804305263631  0.0000749665885157  0.0015077768591878
  0.3349235432934617  0.3296899193743308 -0.0025900007218227
 -0.0020453567904402 -0.0046988799833030  0.5061065616461037
  0.6639330974064972 -0.0008560321224691 -0.0024235563042998
  0.1683048871870300  0.8300326856475427  0.2522146908352688
 -0.0040912790339526  0.6636693532987411 -0.0101923643759960
  0.6729675060146862  0.6693881944464396 -0.0102029402973052
  0.3333185047588690  0.3301941204503240  0.5051498453041301
  0.4985638520501898  0.8319251897847358  0.7456790049194556
  0.6726770753103740  0.6709618908096175  0.5100090200618186
  0.1697643088627658  0.8299734236609345  0.7465556864239045
  0.6670307308638140  0.3340698161770555  0.5063922677566070
  0.4949478258105822  0.5071610332222398  0.2517036007071507
  0.6693569288196578  0.3320538797644272 -0.0065520715458352
 
  0.00000000E+00  0.00000000E+00  0.00000000E+00
  0.00000000E+00  0.00000000E+00  0.00000000E+00
  0.00000000E+00  0.00000000E+00  0.00000000E+00
  0.00000000E+00  0.00000000E+00  0.00000000E+00
  0.00000000E+00  0.00000000E+00  0.00000000E+00
  0.00000000E+00  0.00000000E+00  0.00000000E+00
  0.00000000E+00  0.00000000E+00  0.00000000E+00
  0.00000000E+00  0.00000000E+00  0.00000000E+00
  0.00000000E+00  0.00000000E+00  0.00000000E+00
  0.00000000E+00  0.00000000E+00  0.00000000E+00
  0.00000000E+00  0.00000000E+00  0.00000000E+00
  0.00000000E+00  0.00000000E+00  0.00000000E+00
  0.00000000E+00  0.00000000E+00  0.00000000E+00
  0.00000000E+00  0.00000000E+00  0.00000000E+00
  0.00000000E+00  0.00000000E+00  0.00000000E+00
  0.00000000E+00  0.00000000E+00  0.00000000E+00
  0.00000000E+00  0.00000000E+00  0.00000000E+00
  0.00000000E+00  0.00000000E+00  0.00000000E+00
  0.00000000E+00  0.00000000E+00  0.00000000E+00
  0.00000000E+00  0.00000000E+00  0.00000000E+00
  0.00000000E+00  0.00000000E+00  0.00000000E+00
  0.00000000E+00  0.00000000E+00  0.00000000E+00
  0.00000000E+00  0.00000000E+00  0.00000000E+00
  0.00000000E+00  0.00000000E+00  0.00000000E+00
  0.00000000E+00  0.00000000E+00  0.00000000E+00
  0.00000000E+00  0.00000000E+00  0.00000000E+00
  0.00000000E+00  0.00000000E+00  0.00000000E+00
  0.00000000E+00  0.00000000E+00  0.00000000E+00
  0.00000000E+00  0.00000000E+00  0.00000000E+00
  0.00000000E+00  0.00000000E+00  0.00000000E+00
  0.00000000E+00  0.00000000E+00  0.00000000E+00
  0.00000000E+00  0.00000000E+00  0.00000000E+00
  0.00000000E+00  0.00000000E+00  0.00000000E+00
  0.00000000E+00  0.00000000E+00  0.00000000E+00
  0.00000000E+00  0.00000000E+00  0.00000000E+00
  0.00000000E+00  0.00000000E+00  0.00000000E+00
