title                                   
    1.000000000000000     
     9.7775754969031983    0.0116632134252495    0.0279497201752841
     0.0116336285853341    9.7969876470858193   -0.0241735608942470
     0.0186925318825093   -0.0161650531648699    6.5075541315731007
   Mo   Ta   Ti
     8    18    10
Direct
  0.4995028451501645  0.1649398118315173  0.7492883588971441
  0.6650323562881548  0.3316977180850470  0.4999826792822818
  0.6649992966717588  0.0013573390118987 -0.0006197421061182
  0.1664869409731574  0.5002061980743160  0.2484707787768570
  0.6639898167756447  0.3317887875537973 -0.0034722106752149
  0.1666192933712414  0.4974800880139463  0.7478206781008775
  0.3350371622746491  0.0037064870182213  0.5008628737999309
  0.1717274581650315  0.1645941790295784  0.2531320057973775
  0.5070832071526162  0.4902939155598383  0.2477113657823704
  0.6653758530479076 -0.0024140720504622  0.5068198008875957
  0.8299960778171019  0.8409001592747681  0.7610142769174646
  0.3302224649684424  0.6566585858182726  0.5023832170930592
 -0.0027812743323898  0.0057618281387259  0.4918749393863673
  0.3266208592009018  0.3339452051896727  0.4962359376577311
  0.4947217409546467  0.8407816025998757  0.2513319975480331
  0.1730047901226895  0.8422801331327331  0.7447191265671120
  0.0058861526775559  0.6616356901953894 -0.0015642557731955
  0.8230334986836624  0.1719395941898909  0.2455723943640165
  0.8279585333676347  0.4958419616300687  0.2490455917517134
  0.8340258927084861  0.8349533632104649  0.2478171674624559
  0.0103194076126950  0.3345537525716397  0.0009591193079275
  0.8299931803290145  0.1733321604864099  0.7523369817139006
  0.5080910041610540  0.4926991646536113  0.7505479623147815
  0.1704540977138021  0.8343386775233966  0.2561714329292316
  0.6658919380608803  0.6680453688339943  0.0008100219606368
  0.3298488237940432  0.0110111803087138  0.0026260365757273
  0.4958813890204235  0.8371752172414502  0.7593434035831595
  0.0058585007976162  0.0099203023885574  0.0103041849202231
  0.3259174238848490  0.3333740272762277 -0.0025527414119489
  0.0114516738502616  0.3388437021336518  0.4915394621136748
  0.6655805684440734  0.6745717466848828  0.5030156374800026
  0.5069811897104316  0.1682700351839899  0.2474283477363340
  0.1701260016558523  0.1561678135366078  0.7377831140778622
  0.8233931314744366  0.4875354837366749  0.7497409635482067
  0.3264798297149051  0.6534617088532145  0.0000750769640142
  0.0051888737366046  0.6583510830794155  0.5014440146684073
 
  0.00000000E+00  0.00000000E+00  0.00000000E+00
  0.00000000E+00  0.00000000E+00  0.00000000E+00
  0.00000000E+00  0.00000000E+00  0.00000000E+00
  0.00000000E+00  0.00000000E+00  0.00000000E+00
  0.00000000E+00  0.00000000E+00  0.00000000E+00
  0.00000000E+00  0.00000000E+00  0.00000000E+00
  0.00000000E+00  0.00000000E+00  0.00000000E+00
  0.00000000E+00  0.00000000E+00  0.00000000E+00
  0.00000000E+00  0.00000000E+00  0.00000000E+00
  0.00000000E+00  0.00000000E+00  0.00000000E+00
  0.00000000E+00  0.00000000E+00  0.00000000E+00
  0.00000000E+00  0.00000000E+00  0.00000000E+00
  0.00000000E+00  0.00000000E+00  0.00000000E+00
  0.00000000E+00  0.00000000E+00  0.00000000E+00
  0.00000000E+00  0.00000000E+00  0.00000000E+00
  0.00000000E+00  0.00000000E+00  0.00000000E+00
  0.00000000E+00  0.00000000E+00  0.00000000E+00
  0.00000000E+00  0.00000000E+00  0.00000000E+00
  0.00000000E+00  0.00000000E+00  0.00000000E+00
  0.00000000E+00  0.00000000E+00  0.00000000E+00
  0.00000000E+00  0.00000000E+00  0.00000000E+00
  0.00000000E+00  0.00000000E+00  0.00000000E+00
  0.00000000E+00  0.00000000E+00  0.00000000E+00
  0.00000000E+00  0.00000000E+00  0.00000000E+00
  0.00000000E+00  0.00000000E+00  0.00000000E+00
  0.00000000E+00  0.00000000E+00  0.00000000E+00
  0.00000000E+00  0.00000000E+00  0.00000000E+00
  0.00000000E+00  0.00000000E+00  0.00000000E+00
  0.00000000E+00  0.00000000E+00  0.00000000E+00
  0.00000000E+00  0.00000000E+00  0.00000000E+00
  0.00000000E+00  0.00000000E+00  0.00000000E+00
  0.00000000E+00  0.00000000E+00  0.00000000E+00
  0.00000000E+00  0.00000000E+00  0.00000000E+00
  0.00000000E+00  0.00000000E+00  0.00000000E+00
  0.00000000E+00  0.00000000E+00  0.00000000E+00
  0.00000000E+00  0.00000000E+00  0.00000000E+00
