title                                   
    1.000000000000000     
     9.7188334283389786    0.0419730481417022   -0.0652186476383682
     0.0420784058203838    9.7281823828904574   -0.0409558574910743
    -0.0433839469141342   -0.0270574402037634    6.5481010489059033
   Cr   Hf   Mo   V    W 
     1    12     2     6    15
Direct
  0.4971988200798251  0.5191115388869003  0.7485749753444934
 -0.0030991883789785  0.6750478504218551 -0.0099472225857039
  0.6631060393409003  0.3406587403774552  0.5004157320144057
  0.3360161150623299 -0.0070575424409737  0.0141054604860617
  0.3352009148984763  0.3327684006464185  0.4824141129294054
  0.1571090974543587  0.1609568324896133  0.7525398988530116
  0.4986732533183432  0.5102361163923256  0.2256830688836312
  0.1712855125096761  0.8250303973843481  0.2713653098550398
  0.1691724376071579  0.4917178338022119  0.7506782754666469
  0.8287514319247432  0.5029940938468666  0.2421302426139126
  0.8410197824214720  0.1713377042736419  0.7602685635989540
  0.6688202087743073 -0.0020785027198878  0.4924466012119552
  0.4984956816531980  0.1718247441410105  0.7694207653836733
  0.8349887913512898  0.8395601089329330  0.7481196374480124
  0.6655884479274011  0.3398012183602228 -0.0068241844522983
 -0.0025490810104998  0.3296727995206385  0.4859889423115210
  0.3226230175557646  0.3182448597949868  0.0330310412289206
  0.3463143300195717  0.6592503678242010  0.5135906997690998
  0.5022329693026809  0.8211755409505617  0.2512259569589156
 -0.0080825474283433 -0.0045040464234796  0.4930349541818878
 -0.0034614054308347 -0.0049854965522083  0.0161263060050681
  0.3369069270116899  0.6710977626728346 -0.0168490826320619
  0.1704391292868822  0.8305328102583146  0.7385707390585354
  0.0020644301894019  0.3350011573687106  0.0120235489120307
  0.6650295715973821  0.6757354350333886  0.5032087436051125
  0.8404107726830599  0.1698702438608414  0.2412482992222820
  0.5018907040360282  0.1662751903865698  0.2376370720229672
  0.1577686257248587  0.1587077586114523  0.2582516969676459
  0.6694669115969260 -0.0049423461748122  0.0097442361963244
  0.8335642820058264  0.5036893165938674  0.7456968149721783
  0.5018512593091573  0.8303157519739794  0.7464221129316169
  0.8345327665635055  0.8356947220371087  0.2508708059178817
  0.6669323157100775  0.6771401140481011 -0.0188795710199071
  0.3403954985532545 -0.0075500765161394  0.5004018481124010
  0.1630371672065170  0.4997055009450060  0.2510388499029331
 -0.0036949904274086  0.6679630989911364  0.5062247483234459
 
  0.00000000E+00  0.00000000E+00  0.00000000E+00
  0.00000000E+00  0.00000000E+00  0.00000000E+00
  0.00000000E+00  0.00000000E+00  0.00000000E+00
  0.00000000E+00  0.00000000E+00  0.00000000E+00
  0.00000000E+00  0.00000000E+00  0.00000000E+00
  0.00000000E+00  0.00000000E+00  0.00000000E+00
  0.00000000E+00  0.00000000E+00  0.00000000E+00
  0.00000000E+00  0.00000000E+00  0.00000000E+00
  0.00000000E+00  0.00000000E+00  0.00000000E+00
  0.00000000E+00  0.00000000E+00  0.00000000E+00
  0.00000000E+00  0.00000000E+00  0.00000000E+00
  0.00000000E+00  0.00000000E+00  0.00000000E+00
  0.00000000E+00  0.00000000E+00  0.00000000E+00
  0.00000000E+00  0.00000000E+00  0.00000000E+00
  0.00000000E+00  0.00000000E+00  0.00000000E+00
  0.00000000E+00  0.00000000E+00  0.00000000E+00
  0.00000000E+00  0.00000000E+00  0.00000000E+00
  0.00000000E+00  0.00000000E+00  0.00000000E+00
  0.00000000E+00  0.00000000E+00  0.00000000E+00
  0.00000000E+00  0.00000000E+00  0.00000000E+00
  0.00000000E+00  0.00000000E+00  0.00000000E+00
  0.00000000E+00  0.00000000E+00  0.00000000E+00
  0.00000000E+00  0.00000000E+00  0.00000000E+00
  0.00000000E+00  0.00000000E+00  0.00000000E+00
  0.00000000E+00  0.00000000E+00  0.00000000E+00
  0.00000000E+00  0.00000000E+00  0.00000000E+00
  0.00000000E+00  0.00000000E+00  0.00000000E+00
  0.00000000E+00  0.00000000E+00  0.00000000E+00
  0.00000000E+00  0.00000000E+00  0.00000000E+00
  0.00000000E+00  0.00000000E+00  0.00000000E+00
  0.00000000E+00  0.00000000E+00  0.00000000E+00
  0.00000000E+00  0.00000000E+00  0.00000000E+00
  0.00000000E+00  0.00000000E+00  0.00000000E+00
  0.00000000E+00  0.00000000E+00  0.00000000E+00
  0.00000000E+00  0.00000000E+00  0.00000000E+00
  0.00000000E+00  0.00000000E+00  0.00000000E+00
