title                                   
    1.000000000000000     
     9.7970683762418851    0.0308478908522631    0.0058812736379084
     0.0308822602383161    9.7947987416894744    0.0068767363161904
     0.0039157968732168    0.0045606880967798    6.5314432280600929
   Ta   Ti   W 
    18    10     8
Direct
  0.6678033201372997  0.6710645188822871  0.5155312290480358
  0.4955178183661942  0.1601350859019101  0.2479131605844593
  0.3360943207307179  0.3357483771575330  0.4986867742741532
  0.3315247066287825 -0.0054806080365224  0.5063499133210071
  0.3349688761386111  0.3383671353230928  0.0043177006867690
  0.4964181546096738  0.1651650999465016  0.7544428898714816
  0.8361287381750364  0.5017104223649869  0.2493155001873991
  0.8423970186086621  0.4942196539618868  0.7504603201506718
  0.6700357679255119  0.0001233509369986  0.5034530697488299
  0.5010460456841793  0.4973956337171963  0.7487064334537882
 -0.0042232296831105 -0.0009802749416186  0.5064241173023970
  0.6704047248962213  0.3275602578173599  0.0020812712105767
  0.1613331208883912  0.4957834809447533  0.2505260499267217
  0.1705330359084037  0.8399169156596414  0.2460461348416191
  0.3316306517917827  0.6689772895758230 -0.0091047874826879
  0.0036876974522604  0.6728041418845635  0.5072061625824190
  0.6729488777828389 -0.0023245391496718 -0.0037310905709463
  0.1647659606706384  0.1727412273066027  0.7558160532457834
  0.8293677198885376  0.8239367241294000  0.2505536628983346
  0.5055733701135320  0.5058189077144131  0.2499131835648996
  0.0041549555895033  0.6780692906577120 -0.0108900339519028
  0.6667216027645452  0.6726665625851794 -0.0207710988049468
  0.1634766546612474  0.1678086400040052  0.2482979625883626
  0.3309380459243693  0.6725648266497212  0.5099059464147603
  0.4978289419760727  0.8338194963391838  0.2458522165412622
  0.6712263304247218  0.3233819135145217  0.4967065548571676
 -0.0064713147785355 -0.0019975776757838 -0.0063765996440844
  0.1586008721103022  0.4916317684064865  0.7494159443964552
  0.1678932487957175  0.8374943866659336  0.7527033145114244
  0.8375430761358018  0.1664615952552310  0.2503080031804993
  0.8363611792603264  0.1691538318549831  0.7506155938425890
  0.8334215702645998  0.8336953353232169  0.7467745320672582
  0.4979648611911280  0.8369340252016803  0.7538050576561861
  0.3315522575106502 -0.0017973302884965 -0.0027750686341663
 -0.0054789245527926  0.3288390390457102  0.4989524156515797
 -0.0036900539918225  0.3285913953635783  0.0025675104818432
 
  0.00000000E+00  0.00000000E+00  0.00000000E+00
  0.00000000E+00  0.00000000E+00  0.00000000E+00
  0.00000000E+00  0.00000000E+00  0.00000000E+00
  0.00000000E+00  0.00000000E+00  0.00000000E+00
  0.00000000E+00  0.00000000E+00  0.00000000E+00
  0.00000000E+00  0.00000000E+00  0.00000000E+00
  0.00000000E+00  0.00000000E+00  0.00000000E+00
  0.00000000E+00  0.00000000E+00  0.00000000E+00
  0.00000000E+00  0.00000000E+00  0.00000000E+00
  0.00000000E+00  0.00000000E+00  0.00000000E+00
  0.00000000E+00  0.00000000E+00  0.00000000E+00
  0.00000000E+00  0.00000000E+00  0.00000000E+00
  0.00000000E+00  0.00000000E+00  0.00000000E+00
  0.00000000E+00  0.00000000E+00  0.00000000E+00
  0.00000000E+00  0.00000000E+00  0.00000000E+00
  0.00000000E+00  0.00000000E+00  0.00000000E+00
  0.00000000E+00  0.00000000E+00  0.00000000E+00
  0.00000000E+00  0.00000000E+00  0.00000000E+00
  0.00000000E+00  0.00000000E+00  0.00000000E+00
  0.00000000E+00  0.00000000E+00  0.00000000E+00
  0.00000000E+00  0.00000000E+00  0.00000000E+00
  0.00000000E+00  0.00000000E+00  0.00000000E+00
  0.00000000E+00  0.00000000E+00  0.00000000E+00
  0.00000000E+00  0.00000000E+00  0.00000000E+00
  0.00000000E+00  0.00000000E+00  0.00000000E+00
  0.00000000E+00  0.00000000E+00  0.00000000E+00
  0.00000000E+00  0.00000000E+00  0.00000000E+00
  0.00000000E+00  0.00000000E+00  0.00000000E+00
  0.00000000E+00  0.00000000E+00  0.00000000E+00
  0.00000000E+00  0.00000000E+00  0.00000000E+00
  0.00000000E+00  0.00000000E+00  0.00000000E+00
  0.00000000E+00  0.00000000E+00  0.00000000E+00
  0.00000000E+00  0.00000000E+00  0.00000000E+00
  0.00000000E+00  0.00000000E+00  0.00000000E+00
  0.00000000E+00  0.00000000E+00  0.00000000E+00
  0.00000000E+00  0.00000000E+00  0.00000000E+00
