title                                   
    1.000000000000000     
     9.4576178992211464    0.0010084242378217    0.0118916880951562
     0.0010234378723507    9.4540589059954705    0.0145788328188827
     0.0079193374887626    0.0097019576586774    6.3269088548404717
   Cr   Mo   Nb   Ta   W 
    11     3    15     3     4
Direct
  0.6657228327166541  0.6652065994138868  0.0060885333178669
  0.6689479283365287  0.3319152870826995  0.0040024255415114
  0.3350468087966085  0.0014837723939468 -0.0012153363496599
  0.8269617543477362  0.4952692224464046  0.2445103373777091
  0.1622310322415781  0.1631101721720835  0.2445489735923632
  0.6667363044988993 -0.0061071844285906  0.4989053916658380
 -0.0020205654173156  0.0038039743880218  0.0113881514777523
  0.8316408530161111  0.8387954269563341  0.2530374976082736
  0.3430385477033999  0.6722996535234226  0.4989159913357767
 -0.0027789200167262  0.0025343558557333  0.4911024094340734
  0.5000999318538565  0.8334441691552026  0.7464064627886832
  0.8347294248741692  0.1590095339285190  0.2507095075898684
  0.5013316897114769  0.8325140894422145  0.2499975920047327
  0.3348485015130772  0.3300897362728216  0.0015501528503024
  0.8314225202714109  0.8395478269136963  0.7496366587494191
  0.3415227492275628  0.6761527136792790 -0.0027709529648758
  0.5024963244789585  0.1646560688223046  0.2444658662157781
  0.3369721110251940 -0.0018667175753379  0.5001146124686605
  0.1646249627698204  0.1601015733816279  0.7590951499145039
  0.6652159730252384 -0.0081371317957157  0.0042419048199896
  0.1666589023209200  0.8397016882883408  0.7500110455146628
  0.8320929064894975  0.1601185038592857  0.7528694440806151
  0.8272412157722933  0.4967662731291206  0.7605653555660975
  0.5027535308499876  0.5014002446934095  0.7519934135400000
  0.3335748209435963  0.3297813563936159  0.4958163020353455
 -0.0078618564718791  0.6696399430742490  0.4926055990770866
  0.1711960463139956  0.5031734154869586  0.2492319945874379
 -0.0101842796644353  0.6708759220812240  0.0103581756727382
  0.1637905956266905  0.8464935470265732  0.2483750951856729
  0.6670682843121328  0.6716082702806900  0.4917909830766524
  0.1698578084876902  0.5028094246050837  0.7512567597744940
 -0.0019149030538662  0.3289232418953387  0.4914902812167989
  0.6694540757324583  0.3324960544583764  0.4936297894595277
 -0.0028330906117353  0.3293611844327298  0.0108029980814656
  0.5070356393570969  0.5000297741710337  0.2421670539981884
  0.5032795386213171  0.1629980140954166  0.7523043796946500
 
  0.00000000E+00  0.00000000E+00  0.00000000E+00
  0.00000000E+00  0.00000000E+00  0.00000000E+00
  0.00000000E+00  0.00000000E+00  0.00000000E+00
  0.00000000E+00  0.00000000E+00  0.00000000E+00
  0.00000000E+00  0.00000000E+00  0.00000000E+00
  0.00000000E+00  0.00000000E+00  0.00000000E+00
  0.00000000E+00  0.00000000E+00  0.00000000E+00
  0.00000000E+00  0.00000000E+00  0.00000000E+00
  0.00000000E+00  0.00000000E+00  0.00000000E+00
  0.00000000E+00  0.00000000E+00  0.00000000E+00
  0.00000000E+00  0.00000000E+00  0.00000000E+00
  0.00000000E+00  0.00000000E+00  0.00000000E+00
  0.00000000E+00  0.00000000E+00  0.00000000E+00
  0.00000000E+00  0.00000000E+00  0.00000000E+00
  0.00000000E+00  0.00000000E+00  0.00000000E+00
  0.00000000E+00  0.00000000E+00  0.00000000E+00
  0.00000000E+00  0.00000000E+00  0.00000000E+00
  0.00000000E+00  0.00000000E+00  0.00000000E+00
  0.00000000E+00  0.00000000E+00  0.00000000E+00
  0.00000000E+00  0.00000000E+00  0.00000000E+00
  0.00000000E+00  0.00000000E+00  0.00000000E+00
  0.00000000E+00  0.00000000E+00  0.00000000E+00
  0.00000000E+00  0.00000000E+00  0.00000000E+00
  0.00000000E+00  0.00000000E+00  0.00000000E+00
  0.00000000E+00  0.00000000E+00  0.00000000E+00
  0.00000000E+00  0.00000000E+00  0.00000000E+00
  0.00000000E+00  0.00000000E+00  0.00000000E+00
  0.00000000E+00  0.00000000E+00  0.00000000E+00
  0.00000000E+00  0.00000000E+00  0.00000000E+00
  0.00000000E+00  0.00000000E+00  0.00000000E+00
  0.00000000E+00  0.00000000E+00  0.00000000E+00
  0.00000000E+00  0.00000000E+00  0.00000000E+00
  0.00000000E+00  0.00000000E+00  0.00000000E+00
  0.00000000E+00  0.00000000E+00  0.00000000E+00
  0.00000000E+00  0.00000000E+00  0.00000000E+00
  0.00000000E+00  0.00000000E+00  0.00000000E+00
