title                                   
    1.000000000000000     
    10.1361191253413168   -0.0746439415741960   -0.0269007617267345
    -0.0744652294174670    9.9493855504714563   -0.0098331205253534
    -0.0180672832333494   -0.0066258258202077    6.6197893708658624
   Mo   Ta   Ti   W    Zr
     6     1     2    12    15
Direct
  0.3502764034955681  0.3304953216559516 -0.0099218406709912
  0.8249695641100068  0.8210519486229860  0.7518375388351419
  0.3496042680268695  0.6611413807381673  0.5079162766598884
 -0.0081874265755865  0.3365710000900822  0.5035802145032597
  0.4983105664672213  0.5047330943988781  0.7600502291792655
  0.8324982547813107  0.4958465032182587  0.7446443751129622
  0.3460600582487344  0.0088176994014887 -0.0082640195565281
  0.4946447409003866  0.5086084396774819  0.2412057126528775
  0.1684747478841838  0.1742162636897432  0.7544548195580528
  0.8254430668393907  0.8182905953802814  0.2509324368621627
 -0.0254562823531317  0.6611311888373799  0.4945394400312693
  0.8326177321935472  0.4963178144459611  0.2560378958771216
 -0.0165291353232676  0.3403875999697032 -0.0111127774097183
  0.3505109070307294  0.0141062833583123  0.5088898187732483
  0.4899338367265093  0.8283919834050455  0.7573888034532023
  0.8421900935401125  0.1837332716366582  0.7425303033074055
  0.3464038607848528  0.6637166048174137 -0.0087181767822039
  0.4984709001782395  0.1700390722507421  0.7515926175929194
  0.6656466996498891  0.3361884975051526  0.5095283739659090
  0.4980130585129154  0.1704162427081561  0.2530236268214668
  0.6691832854349061  0.6659538602306362 -0.0033030563693864
 -0.0131240102026776 -0.0074749755675583 -0.0119416000956244
  0.1673217397687478  0.4999588536718128  0.2443119134938264
  0.8421333261155532  0.1802092939918334  0.2603521091602353
  0.3502757814722823  0.3308461599664526  0.5035186752948098
  0.6648869439114307 -0.0011487880415552 -0.0021302072174881
 -0.0121255494459741 -0.0120584010457802  0.5105727128389033
 -0.0161203451851734  0.6670453612381824 -0.0065714597723241
  0.1652803276646994  0.4960486452078968  0.7441374783483921
  0.1768325074697939  0.8263833044478265  0.2560257197767748
  0.1682696463031003  0.1743216153838862  0.2438781056387550
  0.4935502346589668  0.8270697847960353  0.2523663764902712
  0.6648951825564118  0.3413938321996906 -0.0006841542209284
  0.1800540318524286  0.8254528172287423  0.7378464988474018
  0.6682160552806952  0.0016905582524601  0.5117239329730603
  0.6665749272263296  0.6601072722315950  0.5097612860466092
 
  0.00000000E+00  0.00000000E+00  0.00000000E+00
  0.00000000E+00  0.00000000E+00  0.00000000E+00
  0.00000000E+00  0.00000000E+00  0.00000000E+00
  0.00000000E+00  0.00000000E+00  0.00000000E+00
  0.00000000E+00  0.00000000E+00  0.00000000E+00
  0.00000000E+00  0.00000000E+00  0.00000000E+00
  0.00000000E+00  0.00000000E+00  0.00000000E+00
  0.00000000E+00  0.00000000E+00  0.00000000E+00
  0.00000000E+00  0.00000000E+00  0.00000000E+00
  0.00000000E+00  0.00000000E+00  0.00000000E+00
  0.00000000E+00  0.00000000E+00  0.00000000E+00
  0.00000000E+00  0.00000000E+00  0.00000000E+00
  0.00000000E+00  0.00000000E+00  0.00000000E+00
  0.00000000E+00  0.00000000E+00  0.00000000E+00
  0.00000000E+00  0.00000000E+00  0.00000000E+00
  0.00000000E+00  0.00000000E+00  0.00000000E+00
  0.00000000E+00  0.00000000E+00  0.00000000E+00
  0.00000000E+00  0.00000000E+00  0.00000000E+00
  0.00000000E+00  0.00000000E+00  0.00000000E+00
  0.00000000E+00  0.00000000E+00  0.00000000E+00
  0.00000000E+00  0.00000000E+00  0.00000000E+00
  0.00000000E+00  0.00000000E+00  0.00000000E+00
  0.00000000E+00  0.00000000E+00  0.00000000E+00
  0.00000000E+00  0.00000000E+00  0.00000000E+00
  0.00000000E+00  0.00000000E+00  0.00000000E+00
  0.00000000E+00  0.00000000E+00  0.00000000E+00
  0.00000000E+00  0.00000000E+00  0.00000000E+00
  0.00000000E+00  0.00000000E+00  0.00000000E+00
  0.00000000E+00  0.00000000E+00  0.00000000E+00
  0.00000000E+00  0.00000000E+00  0.00000000E+00
  0.00000000E+00  0.00000000E+00  0.00000000E+00
  0.00000000E+00  0.00000000E+00  0.00000000E+00
  0.00000000E+00  0.00000000E+00  0.00000000E+00
  0.00000000E+00  0.00000000E+00  0.00000000E+00
  0.00000000E+00  0.00000000E+00  0.00000000E+00
  0.00000000E+00  0.00000000E+00  0.00000000E+00
