title                                   
    1.000000000000000     
    10.1856055050655101   -0.0132127084698382   -0.0155487247991681
    -0.0125573321775189   10.1208085250182354   -0.0038549995024649
    -0.0101518798554223   -0.0025377800007655    6.6818193168105386
   Hf   Mo   Ta   W 
    19    10     4     3
Direct
  0.5195208436676843  0.5159230390137602  0.7459539252494762
 -0.0018727334260769  0.3417806216064090 -0.0056932373329586
  0.3267517880639234  0.6707257632136299  0.0047468446428419
  0.3356091905435847  0.3246484039275509 -0.0227664835563102
  0.1375508467398353  0.8495042008642931  0.7477061296516183
  0.5189602469530384  0.1554628693464546  0.2569691957761539
  0.6758615420065945  0.3354781677013911  0.0084836867502936
 -0.0023968844610175  0.3433951224529905  0.5052076388167960
  0.3251054116744798  0.6715867470768528  0.4981060613373166
  0.8266084005644939  0.8372283417843241  0.7483243621898402
  0.3405345760409725 -0.0016460245999040  0.5087246361432211
  0.1559069590329847  0.1653754770536005  0.2518155409736810
  0.5205659429458849  0.8281714458023421  0.7518893629280514
  0.3358042742971981  0.3239096343844260  0.5292724361265233
 -0.0025483961032012  0.6538517134614995  0.0099859980650712
  0.3400715269119185 -0.0012041801666184 -0.0057759199954997
  0.8299718493251353  0.1538804464139877  0.7435645324284110
 -0.0028901541375033  0.6530978268936596  0.4866993139372729
  0.1419214577269246  0.8560411245316945  0.2524022085036499
  0.1648934179058000  0.5045992420024920  0.7520942596689988
  0.1461939962050557  0.1523392300851462  0.7539237528340813
  0.5167916157996906  0.8331144549479625  0.2494553280476504
  0.6675114015249033 -0.0034883687648136  0.0090253938146743
  0.8268568542064033  0.8379655059293953  0.2453760011415801
  0.6728411294747775  0.6688410624732573  0.0155245842800364
  0.6714695876884610  0.6695113171812633  0.4823603023875420
 -0.0117410109996390  0.0096875453722278  0.4947531617753929
  0.8218242574532308  0.5051577797264382  0.2510402764975900
  0.6668627910593016 -0.0049582621122532  0.4890817476624672
  0.5028634823830873  0.5070410623369933  0.2571559433575583
  0.8134903705665721  0.5165692212016575  0.7446914504240810
  0.1921237066226624  0.4777829579842109  0.2513018809452310
  0.6765992063529865  0.3365396645374245  0.4886779459068432
  0.8345859498133723  0.1532407392766315  0.2517902948185330
 -0.0112353308509009  0.0111131901231688  0.0030123515905701
  0.5270318864273809  0.1477329169364524  0.7451190922117199
 
  0.00000000E+00  0.00000000E+00  0.00000000E+00
  0.00000000E+00  0.00000000E+00  0.00000000E+00
  0.00000000E+00  0.00000000E+00  0.00000000E+00
  0.00000000E+00  0.00000000E+00  0.00000000E+00
  0.00000000E+00  0.00000000E+00  0.00000000E+00
  0.00000000E+00  0.00000000E+00  0.00000000E+00
  0.00000000E+00  0.00000000E+00  0.00000000E+00
  0.00000000E+00  0.00000000E+00  0.00000000E+00
  0.00000000E+00  0.00000000E+00  0.00000000E+00
  0.00000000E+00  0.00000000E+00  0.00000000E+00
  0.00000000E+00  0.00000000E+00  0.00000000E+00
  0.00000000E+00  0.00000000E+00  0.00000000E+00
  0.00000000E+00  0.00000000E+00  0.00000000E+00
  0.00000000E+00  0.00000000E+00  0.00000000E+00
  0.00000000E+00  0.00000000E+00  0.00000000E+00
  0.00000000E+00  0.00000000E+00  0.00000000E+00
  0.00000000E+00  0.00000000E+00  0.00000000E+00
  0.00000000E+00  0.00000000E+00  0.00000000E+00
  0.00000000E+00  0.00000000E+00  0.00000000E+00
  0.00000000E+00  0.00000000E+00  0.00000000E+00
  0.00000000E+00  0.00000000E+00  0.00000000E+00
  0.00000000E+00  0.00000000E+00  0.00000000E+00
  0.00000000E+00  0.00000000E+00  0.00000000E+00
  0.00000000E+00  0.00000000E+00  0.00000000E+00
  0.00000000E+00  0.00000000E+00  0.00000000E+00
  0.00000000E+00  0.00000000E+00  0.00000000E+00
  0.00000000E+00  0.00000000E+00  0.00000000E+00
  0.00000000E+00  0.00000000E+00  0.00000000E+00
  0.00000000E+00  0.00000000E+00  0.00000000E+00
  0.00000000E+00  0.00000000E+00  0.00000000E+00
  0.00000000E+00  0.00000000E+00  0.00000000E+00
  0.00000000E+00  0.00000000E+00  0.00000000E+00
  0.00000000E+00  0.00000000E+00  0.00000000E+00
  0.00000000E+00  0.00000000E+00  0.00000000E+00
  0.00000000E+00  0.00000000E+00  0.00000000E+00
  0.00000000E+00  0.00000000E+00  0.00000000E+00
