title                                   
    1.000000000000000     
     9.7256959950054398    0.0487775167411195   -0.0226198824423441
     0.0490366205442785    9.7261489953327089    0.0240873794833728
    -0.0149365354153698    0.0159178312714427    6.5673702604364603
   Hf   Ta   Ti   V    W 
     7     7     7     8     7
Direct
  0.4966212079548500  0.4953477968614570  0.7295558304698372
  0.6705860737324875  0.6677257969180710 -0.0007240020803266
  0.1680057449780035  0.5041921733413171  0.2508869977628394
  0.1530873370933235  0.8341332531892998  0.7718723683253669
  0.3334628173919703  0.0106191632846233  0.0054939349976816
  0.6668649950467128  0.0004008053629458 -0.0024150014414389
  0.3317533988505220  0.0042289483751594  0.5102438031073291
  0.1537724973554020  0.8334478098448945  0.2510724036714631
  0.3445678117231220  0.6714514184180026 -0.0054182527757631
  0.5038758767448064  0.8245492599810360  0.2759568500691343
 -0.0011627183003703  0.6641783800678752  0.5211178212166717
  0.6762117595744870  0.3281381727237382  0.4591582732518777
  0.3222171077295129  0.3252796670558453 -0.0085207050284621
  0.8380692211042925  0.4923594075064125  0.7425662638463881
  0.6718374811804440  0.3239472771243799  0.0173929100897632
  0.8485125576610955  0.5036146448577964  0.2583016907215926
  0.0109409198892098  0.3187289989323593 -0.0079242475039029
  0.8383227766218300  0.1625184686316126  0.7325483582730025
  0.8383653342654953  0.8376670792328333  0.2616766321978761
  0.4883921429572444  0.5014838059854088  0.2592912209787020
  0.5107385281802584  0.1845922864261266  0.7325975430381791
  0.5065081552423881  0.8195732374880681  0.7259786416366678
  0.1546800540603493  0.1724051668729726  0.2658680325835266
 -0.0216880701097751  0.6670707800626019 -0.0095850521571348
  0.8449619777392222  0.1520493441036352  0.2643685994088094
  0.1527655473825889  0.1749622849325711  0.7319152993928374
  0.3332768503171213  0.6809944419394179  0.5095883395310192
  0.1712114374478095  0.4951430206145461  0.7408173081488350
 -0.0135745345657715  0.0133623330467966  0.0158555240937510
  0.5005393832491460  0.1715523023549813  0.2557224575026009
  0.6720958048565977  0.6682381680111726  0.5055529144500601
  0.6664436790788955  0.0004157663288304  0.4990422181643777
  0.8362081795004364  0.8382282873340258  0.7450571142384527
  0.3268689651845813  0.3226713537678473  0.4931313042359056
 -0.0006309797446023  0.0052873313417121  0.4990895981249320
  0.0052906786263127  0.3294415676796265  0.5028670074575469
 
  0.00000000E+00  0.00000000E+00  0.00000000E+00
  0.00000000E+00  0.00000000E+00  0.00000000E+00
  0.00000000E+00  0.00000000E+00  0.00000000E+00
  0.00000000E+00  0.00000000E+00  0.00000000E+00
  0.00000000E+00  0.00000000E+00  0.00000000E+00
  0.00000000E+00  0.00000000E+00  0.00000000E+00
  0.00000000E+00  0.00000000E+00  0.00000000E+00
  0.00000000E+00  0.00000000E+00  0.00000000E+00
  0.00000000E+00  0.00000000E+00  0.00000000E+00
  0.00000000E+00  0.00000000E+00  0.00000000E+00
  0.00000000E+00  0.00000000E+00  0.00000000E+00
  0.00000000E+00  0.00000000E+00  0.00000000E+00
  0.00000000E+00  0.00000000E+00  0.00000000E+00
  0.00000000E+00  0.00000000E+00  0.00000000E+00
  0.00000000E+00  0.00000000E+00  0.00000000E+00
  0.00000000E+00  0.00000000E+00  0.00000000E+00
  0.00000000E+00  0.00000000E+00  0.00000000E+00
  0.00000000E+00  0.00000000E+00  0.00000000E+00
  0.00000000E+00  0.00000000E+00  0.00000000E+00
  0.00000000E+00  0.00000000E+00  0.00000000E+00
  0.00000000E+00  0.00000000E+00  0.00000000E+00
  0.00000000E+00  0.00000000E+00  0.00000000E+00
  0.00000000E+00  0.00000000E+00  0.00000000E+00
  0.00000000E+00  0.00000000E+00  0.00000000E+00
  0.00000000E+00  0.00000000E+00  0.00000000E+00
  0.00000000E+00  0.00000000E+00  0.00000000E+00
  0.00000000E+00  0.00000000E+00  0.00000000E+00
  0.00000000E+00  0.00000000E+00  0.00000000E+00
  0.00000000E+00  0.00000000E+00  0.00000000E+00
  0.00000000E+00  0.00000000E+00  0.00000000E+00
  0.00000000E+00  0.00000000E+00  0.00000000E+00
  0.00000000E+00  0.00000000E+00  0.00000000E+00
  0.00000000E+00  0.00000000E+00  0.00000000E+00
  0.00000000E+00  0.00000000E+00  0.00000000E+00
  0.00000000E+00  0.00000000E+00  0.00000000E+00
  0.00000000E+00  0.00000000E+00  0.00000000E+00
