title                                   
    1.000000000000000     
     9.8285930117043243   -0.0055493191761884    0.0643795701824325
    -0.0053377734656222    9.8819298084720213    0.0488141228205286
     0.0430247637756052    0.0327323323565451    6.5456483433294492
   Hf   Mo   W    Zr
    10    19     4     3
Direct
  0.3337677993174109 -0.0090303309625733  0.4969793235603105
  0.1558389500833776  0.1786505162872139  0.2534283145986995
  0.6668679529977011  0.3297560511762874  0.4975255217499139
  0.3302457635683109 -0.0071784422491880 -0.0012809151838746
  0.1565111876332427  0.1740187248841275  0.7474617154276403
  0.4993097639802373  0.1729607914769152  0.2351369138576226
  0.0053546888758745  0.6691465356565885  0.4995135466233917
  0.5077896155787885  0.8236335554986119  0.7542564128447242
  0.0045053559237722  0.6694150794443836  0.0097449651978234
  0.8395048758929214  0.1615924553686008  0.7557682633151588
  0.1729882882331006  0.4955495929111705  0.7507069643756313
  0.3260204752711191  0.6682269755461749 -0.0016907499787124
  0.6701236290485333  0.0005511997219821  0.4941298780570929
 -0.0010479425585623 -0.0097733019463535  0.4997275058313590
 -0.0023585071631988  0.3429217468810944  0.4964339753829326
  0.8372368123587601  0.4932063834480825  0.2433656369255385
  0.1649051387625473  0.8345136393695475  0.2535332234008545
  0.3330459100540341  0.3423599059638600  0.5045291836200744
  0.6646299362612206  0.3291608307815203 -0.0035646112548814
 -0.0014555232258904  0.3422269727811426  0.0113453634731654
 -0.0028799374760764 -0.0096798322127904  0.0088076957173510
  0.5078703020369723  0.8292202327416918  0.2412782501726601
  0.8312306706067580  0.8441850975118196  0.7577627430351674
  0.6687811534331055 -0.0034364334495222  0.0015677614358624
  0.6719608896375834  0.6686643705839218  0.0053475144099149
  0.1727633381642168  0.4969661743632981  0.2520381429047704
  0.3300124471342123  0.3433764044218516 -0.0130638817908839
  0.5049034063104449  0.1670752504451896  0.7501972726106583
  0.8328746760299823  0.1599652892740789  0.2461897343024694
  0.3267297907054819  0.6691254453072079  0.5002387429694577
  0.4904915334259292  0.5012594903862132  0.7550436233329737
  0.8317509534790227  0.8452682580430440  0.2489847539820262
  0.1692437387768861  0.8295723365895908  0.7509492330061840
  0.4930833568519245  0.5014270137373867  0.2385623204664205
  0.8334323583711359  0.4898706333927638  0.7655326596108233
  0.6739671516191207  0.6652313868250661  0.4935130020096796
 
  0.00000000E+00  0.00000000E+00  0.00000000E+00
  0.00000000E+00  0.00000000E+00  0.00000000E+00
  0.00000000E+00  0.00000000E+00  0.00000000E+00
  0.00000000E+00  0.00000000E+00  0.00000000E+00
  0.00000000E+00  0.00000000E+00  0.00000000E+00
  0.00000000E+00  0.00000000E+00  0.00000000E+00
  0.00000000E+00  0.00000000E+00  0.00000000E+00
  0.00000000E+00  0.00000000E+00  0.00000000E+00
  0.00000000E+00  0.00000000E+00  0.00000000E+00
  0.00000000E+00  0.00000000E+00  0.00000000E+00
  0.00000000E+00  0.00000000E+00  0.00000000E+00
  0.00000000E+00  0.00000000E+00  0.00000000E+00
  0.00000000E+00  0.00000000E+00  0.00000000E+00
  0.00000000E+00  0.00000000E+00  0.00000000E+00
  0.00000000E+00  0.00000000E+00  0.00000000E+00
  0.00000000E+00  0.00000000E+00  0.00000000E+00
  0.00000000E+00  0.00000000E+00  0.00000000E+00
  0.00000000E+00  0.00000000E+00  0.00000000E+00
  0.00000000E+00  0.00000000E+00  0.00000000E+00
  0.00000000E+00  0.00000000E+00  0.00000000E+00
  0.00000000E+00  0.00000000E+00  0.00000000E+00
  0.00000000E+00  0.00000000E+00  0.00000000E+00
  0.00000000E+00  0.00000000E+00  0.00000000E+00
  0.00000000E+00  0.00000000E+00  0.00000000E+00
  0.00000000E+00  0.00000000E+00  0.00000000E+00
  0.00000000E+00  0.00000000E+00  0.00000000E+00
  0.00000000E+00  0.00000000E+00  0.00000000E+00
  0.00000000E+00  0.00000000E+00  0.00000000E+00
  0.00000000E+00  0.00000000E+00  0.00000000E+00
  0.00000000E+00  0.00000000E+00  0.00000000E+00
  0.00000000E+00  0.00000000E+00  0.00000000E+00
  0.00000000E+00  0.00000000E+00  0.00000000E+00
  0.00000000E+00  0.00000000E+00  0.00000000E+00
  0.00000000E+00  0.00000000E+00  0.00000000E+00
  0.00000000E+00  0.00000000E+00  0.00000000E+00
  0.00000000E+00  0.00000000E+00  0.00000000E+00
