title                                   
    1.000000000000000     
    10.1186711992155161    0.0014193041429887    0.0390695148142717
     0.0015761072041443   10.2129484859182558   -0.0205567379706220
     0.0260108470295432   -0.0136743103655862    6.7692894954989793
   Nb   Ta   V    W    Zr
    11     4     3     3    15
Direct
  0.6716947441006904  0.3495781994689097 -0.0184932240858497
  0.6751075389906095 -0.0139363256456904  0.5024412281288213
  0.8507344872167841  0.4960518225055180  0.7332960812820085
  0.8396498527437783  0.8458408420647581  0.7405729085420522
  0.4840121168818015  0.5120096862823031  0.7595668575711325
 -0.0008759037476630 -0.0177159375991223  0.4891138791216270
  0.3232615555428636  0.6674875773538268  0.0074435206095711
  0.1707379366426578  0.1497323665455038  0.7477860597169897
  0.4879694061163782  0.8350665546178658  0.7450721201603155
  0.6791014412062342 -0.0196614018659516  0.0003957169544958
  0.0023423421302112 -0.0099423848735546  0.0085601259681344
  0.3225978899546466  0.3347606208929704  0.0051851185428732
  0.8344412755608780  0.4860714943518265  0.2498046746642705
  0.3216038158058168 -0.0083307221918126  0.0052667620435858
 -0.0064879793590938  0.6668841393295093  0.4730873043596430
  0.0029593844784782  0.3587007180202800  0.4763561891828752
  0.8353782035251740  0.8549693368702090  0.2536037687961201
  0.3247038140998045 -0.0068222205618547  0.5125094792665962
  0.3244339031462258  0.6674189340160936  0.4937306322616503
  0.1693888070833968  0.5072319023851857  0.2580604190945945
  0.1702270385245206  0.8328459944740136  0.2592389572712593
  0.8326648050159086  0.1668763370290843  0.2490271189228925
  0.6752947998685912  0.6713671359344181 -0.0086435547178110
  0.5020442348398253  0.1534739402594346  0.7673099554919380
  0.3327550404524590  0.3317482185707565  0.5089436570065996
  0.5030184131364664  0.1577910540554401  0.2433965240278583
  0.4923132974585142  0.5078738430780012  0.2442916533793483
  0.1693305288906027  0.8282168967395053  0.7411995387221528
  0.6767349905929918  0.6727377675375519  0.5005952615288078
  0.0168746261002118  0.3351965195981006  0.0050612542767574
 -0.0071379802987351  0.6724399396569718  0.0140514744000775
  0.4882386693846412  0.8355032858494641  0.2608935068926155
  0.8442959301261782  0.1654041236957629  0.7419593711278174
  0.6619177288361755  0.3467560590894523  0.5203282745189994
  0.1646890129156938  0.5083232184601358  0.7378413557231723
  0.1639842320362826  0.1580504640051329  0.2711460292460089
 
  0.00000000E+00  0.00000000E+00  0.00000000E+00
  0.00000000E+00  0.00000000E+00  0.00000000E+00
  0.00000000E+00  0.00000000E+00  0.00000000E+00
  0.00000000E+00  0.00000000E+00  0.00000000E+00
  0.00000000E+00  0.00000000E+00  0.00000000E+00
  0.00000000E+00  0.00000000E+00  0.00000000E+00
  0.00000000E+00  0.00000000E+00  0.00000000E+00
  0.00000000E+00  0.00000000E+00  0.00000000E+00
  0.00000000E+00  0.00000000E+00  0.00000000E+00
  0.00000000E+00  0.00000000E+00  0.00000000E+00
  0.00000000E+00  0.00000000E+00  0.00000000E+00
  0.00000000E+00  0.00000000E+00  0.00000000E+00
  0.00000000E+00  0.00000000E+00  0.00000000E+00
  0.00000000E+00  0.00000000E+00  0.00000000E+00
  0.00000000E+00  0.00000000E+00  0.00000000E+00
  0.00000000E+00  0.00000000E+00  0.00000000E+00
  0.00000000E+00  0.00000000E+00  0.00000000E+00
  0.00000000E+00  0.00000000E+00  0.00000000E+00
  0.00000000E+00  0.00000000E+00  0.00000000E+00
  0.00000000E+00  0.00000000E+00  0.00000000E+00
  0.00000000E+00  0.00000000E+00  0.00000000E+00
  0.00000000E+00  0.00000000E+00  0.00000000E+00
  0.00000000E+00  0.00000000E+00  0.00000000E+00
  0.00000000E+00  0.00000000E+00  0.00000000E+00
  0.00000000E+00  0.00000000E+00  0.00000000E+00
  0.00000000E+00  0.00000000E+00  0.00000000E+00
  0.00000000E+00  0.00000000E+00  0.00000000E+00
  0.00000000E+00  0.00000000E+00  0.00000000E+00
  0.00000000E+00  0.00000000E+00  0.00000000E+00
  0.00000000E+00  0.00000000E+00  0.00000000E+00
  0.00000000E+00  0.00000000E+00  0.00000000E+00
  0.00000000E+00  0.00000000E+00  0.00000000E+00
  0.00000000E+00  0.00000000E+00  0.00000000E+00
  0.00000000E+00  0.00000000E+00  0.00000000E+00
  0.00000000E+00  0.00000000E+00  0.00000000E+00
  0.00000000E+00  0.00000000E+00  0.00000000E+00
