title                                   
    1.000000000000000     
     9.8786215671709758   -0.0181806170408830   -0.0047236377568447
    -0.0181812962266014    9.8903154324214260    0.0086570855757385
    -0.0031342198604690    0.0057768560139479    6.5977663528593204
   Nb   Ta   V    W    Zr
     2    15     1    12     6
Direct
  0.4959709291027005  0.8327973007599473  0.2504590762745312
  0.0073095627652019  0.0014197435135876  0.0083552718541973
  0.6649725779813245 -0.0056127846016423  0.5014270324287663
  0.6636351966813372 -0.0053700713033689 -0.0000107910748250
  0.4977333073491271  0.1707043394524774  0.2476832025795430
  0.8395205180082613  0.8409312754862148  0.7551691193698065
  0.3293709614341461  0.0015606859611397  0.4971677413690075
  0.4999509251494575  0.1669768966748480  0.7505098130633161
  0.0074737114019677  0.0010416942801654  0.4915571111645242
  0.3320871325686809  0.0015904957829382  0.0050910284444309
  0.3378954892385475  0.6711331665937502  0.5037719052727497
  0.6695299007636490  0.3424000702897216 -0.0131525264899540
  0.8396184194970836  0.1685744481910927  0.7490466819085907
  0.6677729351086236  0.3421768176718875  0.5089465215923110
  0.1662899068067292  0.4947740271104806  0.7598902222434858
  0.6690902960672619  0.6675667844441868  0.5042821471451625
  0.3291940393373237  0.3225707508374640  0.5076024003837507
  0.1649161460207513  0.1713667991608499  0.2460810683686482
 -0.0089675033228945  0.6650303681864370  0.0065986060217337
  0.8387880110933774  0.4959080105631577  0.7508895759393629
  0.4959186938989590  0.8338409395349842  0.7504190358674474
  0.8381998441055716  0.4945144973992439  0.2472421343102627
  0.8351506905292904  0.8382460285986724  0.2492336961742123
  0.4928188631104697  0.4978877619433401  0.7496162510121496
  0.0002638008397996  0.3332026686204869  0.5059141958762693
  0.3368499682385356  0.6710387954059862 -0.0049906674733032
  0.1689566707511450  0.8329937949769033  0.2431659936528065
  0.1659690456002965  0.1696393902960937  0.7539170496716998
  0.0008805138015987  0.3333013886476109 -0.0051401158159462
  0.3311629702794227  0.3232238098052403 -0.0094022702805773
  0.1644922162352602  0.8278537733866957  0.7583653511696576
  0.8366778153986476  0.1715683912521183  0.2491528122180108
 -0.0072368607977006  0.6666382146282093  0.4951044064602700
  0.6688487157897872  0.6668396734546338 -0.0027465119723574
  0.4923608356107710  0.4967262413952127  0.2448683551549571
  0.1665337535554881  0.4949438115992326  0.2439150761153012
 
  0.00000000E+00  0.00000000E+00  0.00000000E+00
  0.00000000E+00  0.00000000E+00  0.00000000E+00
  0.00000000E+00  0.00000000E+00  0.00000000E+00
  0.00000000E+00  0.00000000E+00  0.00000000E+00
  0.00000000E+00  0.00000000E+00  0.00000000E+00
  0.00000000E+00  0.00000000E+00  0.00000000E+00
  0.00000000E+00  0.00000000E+00  0.00000000E+00
  0.00000000E+00  0.00000000E+00  0.00000000E+00
  0.00000000E+00  0.00000000E+00  0.00000000E+00
  0.00000000E+00  0.00000000E+00  0.00000000E+00
  0.00000000E+00  0.00000000E+00  0.00000000E+00
  0.00000000E+00  0.00000000E+00  0.00000000E+00
  0.00000000E+00  0.00000000E+00  0.00000000E+00
  0.00000000E+00  0.00000000E+00  0.00000000E+00
  0.00000000E+00  0.00000000E+00  0.00000000E+00
  0.00000000E+00  0.00000000E+00  0.00000000E+00
  0.00000000E+00  0.00000000E+00  0.00000000E+00
  0.00000000E+00  0.00000000E+00  0.00000000E+00
  0.00000000E+00  0.00000000E+00  0.00000000E+00
  0.00000000E+00  0.00000000E+00  0.00000000E+00
  0.00000000E+00  0.00000000E+00  0.00000000E+00
  0.00000000E+00  0.00000000E+00  0.00000000E+00
  0.00000000E+00  0.00000000E+00  0.00000000E+00
  0.00000000E+00  0.00000000E+00  0.00000000E+00
  0.00000000E+00  0.00000000E+00  0.00000000E+00
  0.00000000E+00  0.00000000E+00  0.00000000E+00
  0.00000000E+00  0.00000000E+00  0.00000000E+00
  0.00000000E+00  0.00000000E+00  0.00000000E+00
  0.00000000E+00  0.00000000E+00  0.00000000E+00
  0.00000000E+00  0.00000000E+00  0.00000000E+00
  0.00000000E+00  0.00000000E+00  0.00000000E+00
  0.00000000E+00  0.00000000E+00  0.00000000E+00
  0.00000000E+00  0.00000000E+00  0.00000000E+00
  0.00000000E+00  0.00000000E+00  0.00000000E+00
  0.00000000E+00  0.00000000E+00  0.00000000E+00
  0.00000000E+00  0.00000000E+00  0.00000000E+00
