title                                   
    1.000000000000000     
     9.7889327382281639    0.0555645576147927    0.0163011669534675
     0.0557725293031502    9.7611739439017029   -0.0228413982757340
     0.0110476155743342   -0.0153605348218109    6.5540764036691854
   Hf   Ti   V    W    Zr
    12     6    15     2     1
Direct
  0.1683240369628413  0.8170553014481604  0.2525776413345588
  0.6518727069573846 -0.0069129777059830  0.4605432351202470
 -0.0119208062701413  0.6544265743749914  0.0069141737901608
  0.8436491981242931  0.1724712592785173  0.7493596241288564
  0.3345249186925596  0.0075137859917746  0.5035571201407538
  0.6762968956148691  0.6600115124567926  0.0123195580245531
  0.1687616941949256  0.4763263566170027  0.7497829191830894
  0.1550631888697143  0.1830178683899482  0.2420768248848736
  0.5214926819091955  0.1934441329911463  0.7470945793129182
  0.3359076361152145  0.0037887333570078 -0.0090627720501127
  0.8440077573622622  0.1669903155201526  0.2401021677145782
  0.8373878485991718  0.8428229777490579  0.7435237724565269
  0.4787730693249601  0.8019373014126077  0.2492080797030955
  0.6528265660977186 -0.0051581688895746  0.0266068992516681
  0.5155379978541020  0.8173626584698285  0.7517554222367190
  0.6816830729606587  0.3594269483599534  0.0069768548195034
  0.3275304587122670  0.6728236784034729  0.5540474702231414
  0.1635069309609608  0.4918180045613758  0.2555619618730025
  0.1566714027312454  0.1700062145576604  0.7460677862564342
  0.3355556351559157  0.3133255809715349  0.5001544427452183
 -0.0177544725995647  0.3547210023680274  0.4972646576056062
  0.8344657804464970  0.4990908153779176  0.7208531429726213
  0.3349339121680444  0.6622734553295275 -0.0410853674505732
  0.0296016331985794 -0.0075749404228402 -0.0232604815708543
  0.6803357306313786  0.3551936687324190  0.4970850877501531
  0.4944046554822625  0.1928663314675129  0.2470299527720981
 -0.0119701812657325  0.6560745523479363  0.4918353629692927
  0.3416065067134852  0.3156979585165117  0.0000725677797255
  0.1507837354184056  0.8408789549178596  0.7446150168787231
 -0.0194203048786336  0.3578551254459003 -0.0003294474583945
  0.5002937270964324  0.4986651512887998  0.7490551063598595
  0.8347523238604937  0.4964929756278670  0.2874014538289887
  0.8488565583755738  0.8357328694951758  0.2739215741440660
  0.0117200501910317 -0.0039192967262074  0.5038400200136953
  0.6700632741243455  0.6596105165311369  0.5045364642672491
  0.4798741801072817  0.4938428013870278  0.2579971279879568
 
  0.00000000E+00  0.00000000E+00  0.00000000E+00
  0.00000000E+00  0.00000000E+00  0.00000000E+00
  0.00000000E+00  0.00000000E+00  0.00000000E+00
  0.00000000E+00  0.00000000E+00  0.00000000E+00
  0.00000000E+00  0.00000000E+00  0.00000000E+00
  0.00000000E+00  0.00000000E+00  0.00000000E+00
  0.00000000E+00  0.00000000E+00  0.00000000E+00
  0.00000000E+00  0.00000000E+00  0.00000000E+00
  0.00000000E+00  0.00000000E+00  0.00000000E+00
  0.00000000E+00  0.00000000E+00  0.00000000E+00
  0.00000000E+00  0.00000000E+00  0.00000000E+00
  0.00000000E+00  0.00000000E+00  0.00000000E+00
  0.00000000E+00  0.00000000E+00  0.00000000E+00
  0.00000000E+00  0.00000000E+00  0.00000000E+00
  0.00000000E+00  0.00000000E+00  0.00000000E+00
  0.00000000E+00  0.00000000E+00  0.00000000E+00
  0.00000000E+00  0.00000000E+00  0.00000000E+00
  0.00000000E+00  0.00000000E+00  0.00000000E+00
  0.00000000E+00  0.00000000E+00  0.00000000E+00
  0.00000000E+00  0.00000000E+00  0.00000000E+00
  0.00000000E+00  0.00000000E+00  0.00000000E+00
  0.00000000E+00  0.00000000E+00  0.00000000E+00
  0.00000000E+00  0.00000000E+00  0.00000000E+00
  0.00000000E+00  0.00000000E+00  0.00000000E+00
  0.00000000E+00  0.00000000E+00  0.00000000E+00
  0.00000000E+00  0.00000000E+00  0.00000000E+00
  0.00000000E+00  0.00000000E+00  0.00000000E+00
  0.00000000E+00  0.00000000E+00  0.00000000E+00
  0.00000000E+00  0.00000000E+00  0.00000000E+00
  0.00000000E+00  0.00000000E+00  0.00000000E+00
  0.00000000E+00  0.00000000E+00  0.00000000E+00
  0.00000000E+00  0.00000000E+00  0.00000000E+00
  0.00000000E+00  0.00000000E+00  0.00000000E+00
  0.00000000E+00  0.00000000E+00  0.00000000E+00
  0.00000000E+00  0.00000000E+00  0.00000000E+00
  0.00000000E+00  0.00000000E+00  0.00000000E+00
