title                                   
    1.000000000000000     
     9.7875843759131840   -0.0858183699459301   -0.0212638026504307
    -0.0858300794803481    9.8073517202104359   -0.0027183573310773
    -0.0143841278766609   -0.0019749829179045    6.6172218003827661
   Nb   Ta   V    W    Zr
     8     7     7     7     7
Direct
  0.0038068944065282  0.6711132841745834 -0.0049370376297792
  0.4893833397126885  0.4912746754522143  0.2612682128108016
  0.8328063214927135  0.1616697191336483  0.2551754908088657
  0.1682035952785075  0.8368483398595274  0.2665427585967391
  0.3302236876727339  0.3294271697865250  0.0183245440227257
  0.6644332155596269 -0.0024731383422789  0.5015278011178169
  0.6587466437173863  0.3111900233589677 -0.0024818623342720
  0.8343829694956407  0.8379798543506466  0.2582994405367665
  0.6586382971574440  0.6756490133045945  0.5079983283301103
  0.8307405223156145  0.4938916610536014  0.7408520743755810
  0.3442895636120292 -0.0019415387417351  0.4956455350453676
  0.0028702951433293  0.6712620888117899  0.5107862720155321
  0.6586701228232343  0.3161103215966407  0.4939435085555886
  0.8327911706052281  0.1621592900515258  0.7429417096440003
  0.3469990260413896  0.0014996101926034  0.0025683569378530
  0.3274491301901343  0.3347101436592210  0.4720528735359711
  0.3225865676545549  0.6719970605928705  0.4995409883045162
  0.1674336399042754  0.8369963978633762  0.7365597803057984
  0.5013792950158233  0.1636943076880053  0.2436047388919068
  0.6634105870419209 -0.0044851026191816 -0.0058203868100936
  0.5056133708175999  0.1621867514838572  0.7527610895088008
  0.1793812931608094  0.1763094342867679  0.2773697438201929
  0.8360563068278146  0.8376977948976982  0.7463613887663632
  0.5006783205084216  0.8425831038000006  0.2549456742539110
  0.0009811893027050 -0.0037666859019949  0.5048128208093385
  0.1655422775437746  0.5034043058457416  0.2657367376828422
  0.1653359428335439  0.5044010658261963  0.7365125822523366
  0.0060397148014194  0.3381526004113467  0.4984082795275901
  0.4991197401382001  0.8419976815787681  0.7453923298574109
  0.0099080340291014 -0.0004856365837183  0.0047108394075228
  0.6610745212630805  0.6760731484651912 -0.0032502137236500
  0.4840945314236654  0.4834644440756582  0.7352733492900765
  0.0090709916576295  0.3365637054227505  0.0039351675563020
  0.3282525678665830  0.6734143710867123 -0.0009450383052558
  0.1802430649749378  0.1723106630296050  0.7279196858566548
  0.8293632480099093  0.4971200710482751  0.2556624363777689
 
  0.00000000E+00  0.00000000E+00  0.00000000E+00
  0.00000000E+00  0.00000000E+00  0.00000000E+00
  0.00000000E+00  0.00000000E+00  0.00000000E+00
  0.00000000E+00  0.00000000E+00  0.00000000E+00
  0.00000000E+00  0.00000000E+00  0.00000000E+00
  0.00000000E+00  0.00000000E+00  0.00000000E+00
  0.00000000E+00  0.00000000E+00  0.00000000E+00
  0.00000000E+00  0.00000000E+00  0.00000000E+00
  0.00000000E+00  0.00000000E+00  0.00000000E+00
  0.00000000E+00  0.00000000E+00  0.00000000E+00
  0.00000000E+00  0.00000000E+00  0.00000000E+00
  0.00000000E+00  0.00000000E+00  0.00000000E+00
  0.00000000E+00  0.00000000E+00  0.00000000E+00
  0.00000000E+00  0.00000000E+00  0.00000000E+00
  0.00000000E+00  0.00000000E+00  0.00000000E+00
  0.00000000E+00  0.00000000E+00  0.00000000E+00
  0.00000000E+00  0.00000000E+00  0.00000000E+00
  0.00000000E+00  0.00000000E+00  0.00000000E+00
  0.00000000E+00  0.00000000E+00  0.00000000E+00
  0.00000000E+00  0.00000000E+00  0.00000000E+00
  0.00000000E+00  0.00000000E+00  0.00000000E+00
  0.00000000E+00  0.00000000E+00  0.00000000E+00
  0.00000000E+00  0.00000000E+00  0.00000000E+00
  0.00000000E+00  0.00000000E+00  0.00000000E+00
  0.00000000E+00  0.00000000E+00  0.00000000E+00
  0.00000000E+00  0.00000000E+00  0.00000000E+00
  0.00000000E+00  0.00000000E+00  0.00000000E+00
  0.00000000E+00  0.00000000E+00  0.00000000E+00
  0.00000000E+00  0.00000000E+00  0.00000000E+00
  0.00000000E+00  0.00000000E+00  0.00000000E+00
  0.00000000E+00  0.00000000E+00  0.00000000E+00
  0.00000000E+00  0.00000000E+00  0.00000000E+00
  0.00000000E+00  0.00000000E+00  0.00000000E+00
  0.00000000E+00  0.00000000E+00  0.00000000E+00
  0.00000000E+00  0.00000000E+00  0.00000000E+00
  0.00000000E+00  0.00000000E+00  0.00000000E+00
