title                                   
    1.000000000000000     
    10.0226810837055087   -0.0508995345948070   -0.0368542846052706
    -0.0521620985636011   10.1610633630524561    0.0207376004650911
    -0.0240218582389080    0.0138497362366977    6.7645912756512363
   Nb   Ti   V    W    Zr
    12     1     6     2    15
Direct
  0.6694459862773882  0.0040815917902198  0.4975087637286871
  0.8223033246092537  0.8468878032411878  0.7591416076029186
  0.1737435229333301  0.8373029723613573  0.7330933154315463
 -0.0138154853185253  0.6750486160540640  0.5224818868842377
  0.4993037616831243  0.1485518901259667  0.7329138383553614
  0.6676316835612970  0.0038867477806457  0.0089944292227483
  0.1641456194877298  0.1697612644320487  0.2529817645105999
 -0.0028469279181421  0.3215064204691133  0.5157845180265881
  0.8385165688771686  0.1666696594627300  0.2390262293942348
 -0.0007880353245330  0.0102529600412574 -0.0097061029494450
  0.8293188968386711  0.8433501119841911  0.2498736209698899
  0.3341974924930001  0.3107243813923854  0.4907180298630091
  0.3428622746286271  0.6686601656958765  0.0172089756720233
  0.1558618277856288  0.1841346721463492  0.7535103510565262
  0.5004623305979318  0.1423584990823747  0.2718879927097274
  0.5166106783373308  0.8668118543309308  0.2564855406508879
  0.4854315169368281  0.4770682599512061  0.2686756321392338
  0.8444384829227655  0.1690015463866398  0.7745152368997006
  0.3408827729734451  0.0096554574791094  0.4890078114376668
 -0.0020624342207643  0.3236423743815492 -0.0151548133310987
  0.8434717085155989  0.4876255977829365  0.7557048388626183
  0.3304178836272621  0.0070096681675103  0.0024037226395712
  0.6565228027013557  0.6627786742656262  0.0151910701511337
  0.3412945880701145  0.3184198926297438  0.0060404729986551
  0.4804268040133281  0.5036860834207310  0.7282824880064147
 -0.0079864338959530  0.6755089638989046 -0.0205049986736432
  0.1675282706945082  0.4976279636129394  0.7420993755764298
  0.4953419233571283  0.8396092110547706  0.7424769997395431
  0.1633200533563680  0.4913035481736044  0.2468750076319212
  0.8554058441996062  0.4912848088172394  0.2518705336791603
 -0.0009561602607940  0.0108197361290654  0.5167868158673598
  0.6694359348681858  0.3257030393494468  0.5058156957176504
  0.6639149727576329  0.3282545144369778  0.0021348801338827
  0.6708936103173863  0.6620928184278395  0.4931497894594782
  0.1551911136681368  0.8391167322320173  0.2578976346497838
  0.3501332258485827  0.6798014990114428  0.4448270452849958
 
  0.00000000E+00  0.00000000E+00  0.00000000E+00
  0.00000000E+00  0.00000000E+00  0.00000000E+00
  0.00000000E+00  0.00000000E+00  0.00000000E+00
  0.00000000E+00  0.00000000E+00  0.00000000E+00
  0.00000000E+00  0.00000000E+00  0.00000000E+00
  0.00000000E+00  0.00000000E+00  0.00000000E+00
  0.00000000E+00  0.00000000E+00  0.00000000E+00
  0.00000000E+00  0.00000000E+00  0.00000000E+00
  0.00000000E+00  0.00000000E+00  0.00000000E+00
  0.00000000E+00  0.00000000E+00  0.00000000E+00
  0.00000000E+00  0.00000000E+00  0.00000000E+00
  0.00000000E+00  0.00000000E+00  0.00000000E+00
  0.00000000E+00  0.00000000E+00  0.00000000E+00
  0.00000000E+00  0.00000000E+00  0.00000000E+00
  0.00000000E+00  0.00000000E+00  0.00000000E+00
  0.00000000E+00  0.00000000E+00  0.00000000E+00
  0.00000000E+00  0.00000000E+00  0.00000000E+00
  0.00000000E+00  0.00000000E+00  0.00000000E+00
  0.00000000E+00  0.00000000E+00  0.00000000E+00
  0.00000000E+00  0.00000000E+00  0.00000000E+00
  0.00000000E+00  0.00000000E+00  0.00000000E+00
  0.00000000E+00  0.00000000E+00  0.00000000E+00
  0.00000000E+00  0.00000000E+00  0.00000000E+00
  0.00000000E+00  0.00000000E+00  0.00000000E+00
  0.00000000E+00  0.00000000E+00  0.00000000E+00
  0.00000000E+00  0.00000000E+00  0.00000000E+00
  0.00000000E+00  0.00000000E+00  0.00000000E+00
  0.00000000E+00  0.00000000E+00  0.00000000E+00
  0.00000000E+00  0.00000000E+00  0.00000000E+00
  0.00000000E+00  0.00000000E+00  0.00000000E+00
  0.00000000E+00  0.00000000E+00  0.00000000E+00
  0.00000000E+00  0.00000000E+00  0.00000000E+00
  0.00000000E+00  0.00000000E+00  0.00000000E+00
  0.00000000E+00  0.00000000E+00  0.00000000E+00
  0.00000000E+00  0.00000000E+00  0.00000000E+00
  0.00000000E+00  0.00000000E+00  0.00000000E+00
