title                                   
    1.000000000000000     
    10.0852959801127415    0.0064914412630925   -0.0145438376592526
     0.0064067412558605   10.1675179608557382    0.0334574477172882
    -0.0100698123287100    0.0221975646595469    6.8508499537365015
   Hf   Ta   Ti   W    Zr
     3    15     3     4    11
Direct
  0.4943787125370623  0.1693859762886798  0.2479673313408502
 -0.0082526733397338  0.6612779704689312  0.4829993052570485
  0.5012180356123116  0.4943855694214428  0.7676740688793110
  0.8260060909969599  0.8441528683098954  0.2627826429271837
  0.4999626628504156  0.4944863126015082  0.2410814815280812
  0.6595439114727949  0.6686085192841110  0.5051735688885591
  0.6733272140415135  0.6758089081672758  0.0018593043634995
 -0.0011815032633260  0.3199941592474734 -0.0116241459099214
  0.1730037656115363  0.1706368754343195  0.2478754829784843
  0.8381232311518252  0.1553390507846131  0.7245516007768883
  0.4999821687155916  0.8323050172474605  0.7592511113017281
  0.8243594462346580  0.5032781299907473  0.7480146074490278
  0.6623011844283377  0.0001718851903828  0.5071893890896717
  0.3297954091081740  0.3283029986816154  0.5065798629132326
  0.3288282387856585  0.0151646509377045  0.5226709071122925
  0.3285518575661837  0.0106924014230768 -0.0258099252895700
  0.6683189816237205  0.3255932772403555  0.5129857472824734
  0.8368255067067820  0.1554153773991164  0.2699821917471045
 -0.0288488174654198  0.6648104293991790  0.0218879660207162
  0.6704222893595533  0.0002677768682293 -0.0061793389600864
  0.4952989867370984  0.1725929981728410  0.7511039726110030
  0.3513278003278149  0.6718196637117732  0.0034644014995958
  0.3312760169606304  0.3229769042260516 -0.0037049372504943
  0.1734200369883686  0.1719079113776765  0.7488302310394159
  0.0026595830812485  0.0096434575657209  0.4946829072731457
  0.1681360799391337  0.8394374488400104  0.2429689588304929
  0.8362294431005955  0.8371570030342732  0.7418722975893459
  0.8113839188102283  0.4928145002975401  0.2527946248787600
  0.3441268641122512  0.6578003861087883  0.4973925658574438
  0.1659751414112144  0.8315524516854783  0.7525420030629735
  0.1730815649384676  0.5045859871311003  0.7769545701384346
  0.1799223776221198  0.4961948682223241  0.2206964209188982
  0.0014685408549457  0.0160412765865344 -0.0029220766302510
  0.6840300180119212  0.3122068761323334 -0.0139744294020030
  0.4982278088215852  0.8386481976586793  0.2450895458746507
  0.0067701055477787  0.3345419148627565  0.5052957840120135
 
  0.00000000E+00  0.00000000E+00  0.00000000E+00
  0.00000000E+00  0.00000000E+00  0.00000000E+00
  0.00000000E+00  0.00000000E+00  0.00000000E+00
  0.00000000E+00  0.00000000E+00  0.00000000E+00
  0.00000000E+00  0.00000000E+00  0.00000000E+00
  0.00000000E+00  0.00000000E+00  0.00000000E+00
  0.00000000E+00  0.00000000E+00  0.00000000E+00
  0.00000000E+00  0.00000000E+00  0.00000000E+00
  0.00000000E+00  0.00000000E+00  0.00000000E+00
  0.00000000E+00  0.00000000E+00  0.00000000E+00
  0.00000000E+00  0.00000000E+00  0.00000000E+00
  0.00000000E+00  0.00000000E+00  0.00000000E+00
  0.00000000E+00  0.00000000E+00  0.00000000E+00
  0.00000000E+00  0.00000000E+00  0.00000000E+00
  0.00000000E+00  0.00000000E+00  0.00000000E+00
  0.00000000E+00  0.00000000E+00  0.00000000E+00
  0.00000000E+00  0.00000000E+00  0.00000000E+00
  0.00000000E+00  0.00000000E+00  0.00000000E+00
  0.00000000E+00  0.00000000E+00  0.00000000E+00
  0.00000000E+00  0.00000000E+00  0.00000000E+00
  0.00000000E+00  0.00000000E+00  0.00000000E+00
  0.00000000E+00  0.00000000E+00  0.00000000E+00
  0.00000000E+00  0.00000000E+00  0.00000000E+00
  0.00000000E+00  0.00000000E+00  0.00000000E+00
  0.00000000E+00  0.00000000E+00  0.00000000E+00
  0.00000000E+00  0.00000000E+00  0.00000000E+00
  0.00000000E+00  0.00000000E+00  0.00000000E+00
  0.00000000E+00  0.00000000E+00  0.00000000E+00
  0.00000000E+00  0.00000000E+00  0.00000000E+00
  0.00000000E+00  0.00000000E+00  0.00000000E+00
  0.00000000E+00  0.00000000E+00  0.00000000E+00
  0.00000000E+00  0.00000000E+00  0.00000000E+00
  0.00000000E+00  0.00000000E+00  0.00000000E+00
  0.00000000E+00  0.00000000E+00  0.00000000E+00
  0.00000000E+00  0.00000000E+00  0.00000000E+00
  0.00000000E+00  0.00000000E+00  0.00000000E+00
