title                                   
    1.000000000000000     
     9.4366099755647461    0.0451149356194182    0.0039662756417577
     0.0451083899670348    9.4504099298568249   -0.0061263816463796
     0.0025952050764261   -0.0040556409311814    6.3404177520078608
   Nb   Ta   Ti   V 
     4    10     3    19
Direct
  0.6725851061916732 -0.0022452415287483 -0.0096781072128110
  0.8322820089463184  0.8341539491524905  0.2544271773962790
  0.6673177010465201  0.3338968950137100 -0.0172792529874635
  0.3285489935661909  0.0030326939792369 -0.0033320677211356
  0.4934906775716285  0.8332996798597436  0.7344984500883919
  0.5053720450203487  0.1617226218312010  0.2565310140005179
  0.3291358649357064  0.3370790922376590 -0.0047765369152254
  0.4983134319732848  0.5083481875709795  0.2591429758511569
  0.3267003677895490  0.3350515772520922  0.5065870226834874
  0.1725551063929204  0.8291965237103546  0.2495225597978806
  0.0014282391761942  0.6650857520223695  0.5151962762841225
  0.6664689640912957  0.6671942497805949 -0.0068556847886481
  0.0077110539192656  0.3296143031714023 -0.0091562019247726
  0.8360040939364809  0.4925297128407922  0.2575926951442742
  0.0047833468325831  0.0002044558417302  0.5245551809100444
  0.8372471862501467  0.1713576758072169  0.2696470730244706
  0.0000121779676005  0.0016871725427996 -0.0203426928696591
  0.1640150589740934  0.1660151634921786  0.2582334322836903
  0.3278769471745420  0.6619983892579302 -0.0049852206410676
  0.4984416266578816  0.5078561542272014  0.7424172076376294
  0.1766564532964367  0.8225138030943313  0.7576347721830905
  0.1641217901127585  0.5063791859652420  0.2486662443949430
  0.0065048471719314  0.3315947707766990  0.5093232472303527
  0.1711251191617552  0.1678650579188066  0.7399698347108672
  0.3286216470132846  0.6648911733749260  0.5071593984967301
  0.5048846425547879  0.1620585981702483  0.7371012797430025
  0.6671913891445815 -0.0009285833675585  0.5036162313038971
  0.6660545377443797  0.3334063063662380  0.5142776873384858
  0.0042816321219613  0.6617708280373414 -0.0037306708628003
  0.4926810183268376  0.8335506420029158  0.2581797321613918
  0.1662233976350117  0.5087734749684178  0.7581173876947956
  0.3292644393877894  0.0049493158228750  0.4992353295264801
  0.8336349769456081  0.4972115129543542  0.7452183253501525
  0.6665343436943606  0.6674279813966109  0.5062715046485829
  0.8249978274967216  0.8275126655538196  0.7459911708694521
  0.8269319397775698  0.1739442589017970  0.7210232251694139
 
  0.00000000E+00  0.00000000E+00  0.00000000E+00
  0.00000000E+00  0.00000000E+00  0.00000000E+00
  0.00000000E+00  0.00000000E+00  0.00000000E+00
  0.00000000E+00  0.00000000E+00  0.00000000E+00
  0.00000000E+00  0.00000000E+00  0.00000000E+00
  0.00000000E+00  0.00000000E+00  0.00000000E+00
  0.00000000E+00  0.00000000E+00  0.00000000E+00
  0.00000000E+00  0.00000000E+00  0.00000000E+00
  0.00000000E+00  0.00000000E+00  0.00000000E+00
  0.00000000E+00  0.00000000E+00  0.00000000E+00
  0.00000000E+00  0.00000000E+00  0.00000000E+00
  0.00000000E+00  0.00000000E+00  0.00000000E+00
  0.00000000E+00  0.00000000E+00  0.00000000E+00
  0.00000000E+00  0.00000000E+00  0.00000000E+00
  0.00000000E+00  0.00000000E+00  0.00000000E+00
  0.00000000E+00  0.00000000E+00  0.00000000E+00
  0.00000000E+00  0.00000000E+00  0.00000000E+00
  0.00000000E+00  0.00000000E+00  0.00000000E+00
  0.00000000E+00  0.00000000E+00  0.00000000E+00
  0.00000000E+00  0.00000000E+00  0.00000000E+00
  0.00000000E+00  0.00000000E+00  0.00000000E+00
  0.00000000E+00  0.00000000E+00  0.00000000E+00
  0.00000000E+00  0.00000000E+00  0.00000000E+00
  0.00000000E+00  0.00000000E+00  0.00000000E+00
  0.00000000E+00  0.00000000E+00  0.00000000E+00
  0.00000000E+00  0.00000000E+00  0.00000000E+00
  0.00000000E+00  0.00000000E+00  0.00000000E+00
  0.00000000E+00  0.00000000E+00  0.00000000E+00
  0.00000000E+00  0.00000000E+00  0.00000000E+00
  0.00000000E+00  0.00000000E+00  0.00000000E+00
  0.00000000E+00  0.00000000E+00  0.00000000E+00
  0.00000000E+00  0.00000000E+00  0.00000000E+00
  0.00000000E+00  0.00000000E+00  0.00000000E+00
  0.00000000E+00  0.00000000E+00  0.00000000E+00
  0.00000000E+00  0.00000000E+00  0.00000000E+00
  0.00000000E+00  0.00000000E+00  0.00000000E+00
