title                                   
    1.000000000000000     
     9.8400763310211392    0.0300837946213783   -0.0991245659960742
     0.0287869552479504    9.9867253727654344    0.0240273825032675
    -0.0694408577822719    0.0165790858991344    6.6455832733446991
   Ti   V    Zr
    18     8    10
Direct
  0.8227990533873548  0.1686053580879360  0.6859482312537698
  0.8487531986959090  0.8383633823268487  0.7283511988984125
  0.1921146173685739  0.1222401868950468  0.2354232593427802
  0.1712905916020323  0.8354103237609130  0.2576274337804280
 -0.0129145561002248  0.3146431161949536 -0.0207158043583700
 -0.0012221970025415  0.6683634025337274  0.4852112652757848
  0.8541182528582363  0.4800975411342351  0.7084261068576246
  0.8271429588981527  0.1679256231962159  0.2462388564557632
  0.4797257176211369  0.5016856114793385  0.7653512555691560
  0.1809280931067276  0.1551015592964741  0.7633019912009872
  0.0200043572932108  0.0044041350087824  0.5214469610640290
  0.5097116650044456  0.4923539488287446  0.2389330710272746
  0.1699023607255530  0.5114065968800681  0.7279213773250762
  0.6852502099486747 -0.0023772202772364 -0.0406513043604259
 -0.0046816822004847  0.0096442687242178 -0.0249807233039298
  0.3273989226534259  0.6810893266125706 -0.0161646621711679
  0.6865564698241894  0.3395243809400735 -0.0368877885737376
  0.8131365915873057  0.4730266925199667  0.2712165353361775
  0.3206120535985033 -0.0344834559905941 -0.0245310474850768
  0.1995293830073032  0.5577500218945343  0.3012886456273146
  0.6465946036665859 -0.0150384831968706  0.5543203012686045
  0.6475248199831652  0.3448024997337793  0.5317782234071210
  0.3196144904085785 -0.0153378733994917  0.5337415073212932
  0.4775487693555163  0.8365565118417880  0.7442464152148847
  0.3296912547920376  0.6870000062194848  0.5348840530694831
  0.1688827605921236  0.8427045433638626  0.7522904167025238
  0.4890157498403762  0.8507625070083138  0.2608611854984280
  0.5191096990318455  0.1636162788720069  0.2643831439263912
  0.6627694427094992  0.6624993070438825  0.5159875599093710
  0.2924487704062713  0.3555096157340316  0.0358983420110095
  0.4874458125627735  0.1600026503473306  0.7787627724523910
  0.3340023454026160  0.3322284989191994  0.4932070628301244
  0.8258536603579161  0.8670716653830018  0.2758308117816768
  0.6708995847932413  0.6651948595133833 -0.0051607890416873
  0.0332919475605780  0.3340228197281948  0.4374233383247119
  0.0051502266593915  0.6436297928412854  0.0187907965618037
 
  0.00000000E+00  0.00000000E+00  0.00000000E+00
  0.00000000E+00  0.00000000E+00  0.00000000E+00
  0.00000000E+00  0.00000000E+00  0.00000000E+00
  0.00000000E+00  0.00000000E+00  0.00000000E+00
  0.00000000E+00  0.00000000E+00  0.00000000E+00
  0.00000000E+00  0.00000000E+00  0.00000000E+00
  0.00000000E+00  0.00000000E+00  0.00000000E+00
  0.00000000E+00  0.00000000E+00  0.00000000E+00
  0.00000000E+00  0.00000000E+00  0.00000000E+00
  0.00000000E+00  0.00000000E+00  0.00000000E+00
  0.00000000E+00  0.00000000E+00  0.00000000E+00
  0.00000000E+00  0.00000000E+00  0.00000000E+00
  0.00000000E+00  0.00000000E+00  0.00000000E+00
  0.00000000E+00  0.00000000E+00  0.00000000E+00
  0.00000000E+00  0.00000000E+00  0.00000000E+00
  0.00000000E+00  0.00000000E+00  0.00000000E+00
  0.00000000E+00  0.00000000E+00  0.00000000E+00
  0.00000000E+00  0.00000000E+00  0.00000000E+00
  0.00000000E+00  0.00000000E+00  0.00000000E+00
  0.00000000E+00  0.00000000E+00  0.00000000E+00
  0.00000000E+00  0.00000000E+00  0.00000000E+00
  0.00000000E+00  0.00000000E+00  0.00000000E+00
  0.00000000E+00  0.00000000E+00  0.00000000E+00
  0.00000000E+00  0.00000000E+00  0.00000000E+00
  0.00000000E+00  0.00000000E+00  0.00000000E+00
  0.00000000E+00  0.00000000E+00  0.00000000E+00
  0.00000000E+00  0.00000000E+00  0.00000000E+00
  0.00000000E+00  0.00000000E+00  0.00000000E+00
  0.00000000E+00  0.00000000E+00  0.00000000E+00
  0.00000000E+00  0.00000000E+00  0.00000000E+00
  0.00000000E+00  0.00000000E+00  0.00000000E+00
  0.00000000E+00  0.00000000E+00  0.00000000E+00
  0.00000000E+00  0.00000000E+00  0.00000000E+00
  0.00000000E+00  0.00000000E+00  0.00000000E+00
  0.00000000E+00  0.00000000E+00  0.00000000E+00
  0.00000000E+00  0.00000000E+00  0.00000000E+00
