title                                   
    1.000000000000000     
     9.8397698728198471    0.0479401502708807    0.0050914752329348
     0.0479072308711554    9.8322940804554690   -0.0140954987964870
     0.0033642228013007   -0.0093830050443142    6.5453303007249239
   Nb   Ta   Ti   W    Zr
     2    15    12     6     1
Direct
  0.6643232472651803  0.6668463786716650 -0.0030049255132468
  0.0027409535471150 -0.0006260951975727  0.5009030193077764
  0.8332663853074759  0.1670666936271132  0.7499709784008043
  0.6599253726922651 -0.0022914194934318 -0.0144007485254157
  0.3335080319749190  0.3249111956815095  0.0196438514298651
  0.1700512178743214  0.8282167039597077  0.2501083426772210
  0.8333237906662756  0.4998462284721323  0.2435850066458178
  0.3368314455160442  0.0027551896436909  0.5012748085455939
  0.0021528552341197  0.3281279457160844  0.4921195691550609
  0.0017063123810538  0.3300350282029837  0.0060494570587370
  0.6659601112824202  0.6660054602783941  0.5012092724926978
  0.1650743990573482  0.1615166737043981  0.7526287996193873
 -0.0035291028000297  0.6665473201561767  0.0143793188465290
  0.6638894992273809  0.3357527744183326  0.0100103900358651
  0.8299345650448069  0.1592235761446722  0.2499163800059815
  0.8393673673568008  0.8333577086225888  0.7574568996755372
  0.4978410484190441  0.8312573250790886  0.2480791054894325
  0.6587880445583012 -0.0136166481434910  0.5158812324320604
  0.1669843738243449  0.8336268772370520  0.7539083621159846
  0.5010844046449288  0.1783636492043772  0.7454909304367191
  0.1742385181622063  0.5079616574090998  0.2518881707934962
  0.3354711837735732  0.0026455997751769 -0.0012111536679571
  0.3301541871507274  0.3239064881544438  0.4779234458915974
  0.5119332973751587  0.1649125568981681  0.2576353619513049
  0.8312489750738450  0.4985258296840205  0.7569178701046857
 -0.0108273691376241  0.6684264312240915  0.4863051871620910
  0.8352587222524579  0.8438620960382857  0.2428929099910815
  0.6656652876340706  0.3492071418383815  0.4862790623766540
  0.4925606796233675  0.5006120285731767  0.7501850654280103
  0.4935724656162926  0.8257375751300640  0.7503281815034841
  0.4937002096300585  0.5052588469834556  0.2476604760006960
  0.3406004756013566  0.6706443501839938  0.4963029217640351
  0.0046154463528438  0.0022876953278022  0.0020741397047222
  0.3399026916284300  0.6715989571559954  0.0027864857028007
  0.1639054063817773  0.1619049372933266  0.2492332597980158
  0.1747754998073405  0.5055852423450478  0.7475885651628749
 
  0.00000000E+00  0.00000000E+00  0.00000000E+00
  0.00000000E+00  0.00000000E+00  0.00000000E+00
  0.00000000E+00  0.00000000E+00  0.00000000E+00
  0.00000000E+00  0.00000000E+00  0.00000000E+00
  0.00000000E+00  0.00000000E+00  0.00000000E+00
  0.00000000E+00  0.00000000E+00  0.00000000E+00
  0.00000000E+00  0.00000000E+00  0.00000000E+00
  0.00000000E+00  0.00000000E+00  0.00000000E+00
  0.00000000E+00  0.00000000E+00  0.00000000E+00
  0.00000000E+00  0.00000000E+00  0.00000000E+00
  0.00000000E+00  0.00000000E+00  0.00000000E+00
  0.00000000E+00  0.00000000E+00  0.00000000E+00
  0.00000000E+00  0.00000000E+00  0.00000000E+00
  0.00000000E+00  0.00000000E+00  0.00000000E+00
  0.00000000E+00  0.00000000E+00  0.00000000E+00
  0.00000000E+00  0.00000000E+00  0.00000000E+00
  0.00000000E+00  0.00000000E+00  0.00000000E+00
  0.00000000E+00  0.00000000E+00  0.00000000E+00
  0.00000000E+00  0.00000000E+00  0.00000000E+00
  0.00000000E+00  0.00000000E+00  0.00000000E+00
  0.00000000E+00  0.00000000E+00  0.00000000E+00
  0.00000000E+00  0.00000000E+00  0.00000000E+00
  0.00000000E+00  0.00000000E+00  0.00000000E+00
  0.00000000E+00  0.00000000E+00  0.00000000E+00
  0.00000000E+00  0.00000000E+00  0.00000000E+00
  0.00000000E+00  0.00000000E+00  0.00000000E+00
  0.00000000E+00  0.00000000E+00  0.00000000E+00
  0.00000000E+00  0.00000000E+00  0.00000000E+00
  0.00000000E+00  0.00000000E+00  0.00000000E+00
  0.00000000E+00  0.00000000E+00  0.00000000E+00
  0.00000000E+00  0.00000000E+00  0.00000000E+00
  0.00000000E+00  0.00000000E+00  0.00000000E+00
  0.00000000E+00  0.00000000E+00  0.00000000E+00
  0.00000000E+00  0.00000000E+00  0.00000000E+00
  0.00000000E+00  0.00000000E+00  0.00000000E+00
  0.00000000E+00  0.00000000E+00  0.00000000E+00
