title                                   
    1.000000000000000     
     9.9038003659607767   -0.0008179319706894    0.0105609646668462
    -0.0007965018531917    9.9300674689549080   -0.0046030004875073
     0.0070517693267346   -0.0030582119201720    6.5976699515118051
   Nb   Ti   W    Zr
    14     4    11     7
Direct
  0.3233180046061391 -0.0077611075319931 -0.0051289601285596
 -0.0052800115193272  0.3188596627412817  0.0037725472628926
  0.1630082134067689  0.8343374866544973  0.2548204329539481
  0.1703851613542619  0.1698257413655540  0.2539562167112072
  0.6770949520500180 -0.0047387942103266  0.0027902344375093
  0.8325429411204026  0.1649435793065058  0.7443075401495062
  0.6698961224405930  0.3399439253118203  0.0054825295553442
  0.6623811112861714  0.6660372744813544  0.4959604063920659
  0.3416299590943901  0.6731089041253258 -0.0022902860114542
  0.6668637028047935  0.6674698634627994  0.0037486761725144
  0.6696464663461207  0.3383266695029073  0.4911420270462340
 -0.0051683586431360  0.6792549525445141  0.4999644923691360
 -0.0053125026420352  0.3210992060436778  0.4942414417660131
  0.4972711723341274  0.4932946903097779  0.2447028400676243
  0.8295347771700229  0.8365735897974581  0.2646786027186471
 -0.0057088362691466  0.6859888778272882 -0.0040305929906253
  0.5118372535255701  0.8419753868688731  0.7536332300592478
  0.3198764654949088 -0.0101235576425856  0.5079271186860057
  0.5121226037000679  0.8374362534437199  0.2470278925588400
  0.8308417396408837  0.5021907333022549  0.2507764435802141
  0.3328110181441187  0.3318084334285647 -0.0050776015543164
  0.0049248431073974  0.0018135619423434  0.5065215685621074
  0.3315676705089367  0.3298391867856394  0.5027698016322149
  0.8299337108376431  0.1624943354112090  0.2588442661479516
  0.6755744093360423 -0.0058057631016691  0.4978481022449739
  0.1714518726894228  0.1698936196582276  0.7455301940603410
  0.4985849478267337  0.4938639851301013  0.7535923213324964
  0.8274554652552276  0.8365733282993500  0.7377281681610278
  0.1648821217335259  0.8362076854110282  0.7496578743752810
  0.8365611087506590  0.5041808099669569  0.7493099159634505
  0.3418428353267854  0.6733138968272783  0.5020882700405310
  0.1623869992932790  0.4963277602708779  0.2442435008811014
  0.4974233008337806  0.1621719562147468  0.2507861772404009
  0.1671666573347264  0.4962904012623907  0.7525747750413704
  0.0005173185232099 -0.0003384162328815  0.0000938799317631
  0.5001347831969167  0.1633218810211335  0.7460059525829928
 
  0.00000000E+00  0.00000000E+00  0.00000000E+00
  0.00000000E+00  0.00000000E+00  0.00000000E+00
  0.00000000E+00  0.00000000E+00  0.00000000E+00
  0.00000000E+00  0.00000000E+00  0.00000000E+00
  0.00000000E+00  0.00000000E+00  0.00000000E+00
  0.00000000E+00  0.00000000E+00  0.00000000E+00
  0.00000000E+00  0.00000000E+00  0.00000000E+00
  0.00000000E+00  0.00000000E+00  0.00000000E+00
  0.00000000E+00  0.00000000E+00  0.00000000E+00
  0.00000000E+00  0.00000000E+00  0.00000000E+00
  0.00000000E+00  0.00000000E+00  0.00000000E+00
  0.00000000E+00  0.00000000E+00  0.00000000E+00
  0.00000000E+00  0.00000000E+00  0.00000000E+00
  0.00000000E+00  0.00000000E+00  0.00000000E+00
  0.00000000E+00  0.00000000E+00  0.00000000E+00
  0.00000000E+00  0.00000000E+00  0.00000000E+00
  0.00000000E+00  0.00000000E+00  0.00000000E+00
  0.00000000E+00  0.00000000E+00  0.00000000E+00
  0.00000000E+00  0.00000000E+00  0.00000000E+00
  0.00000000E+00  0.00000000E+00  0.00000000E+00
  0.00000000E+00  0.00000000E+00  0.00000000E+00
  0.00000000E+00  0.00000000E+00  0.00000000E+00
  0.00000000E+00  0.00000000E+00  0.00000000E+00
  0.00000000E+00  0.00000000E+00  0.00000000E+00
  0.00000000E+00  0.00000000E+00  0.00000000E+00
  0.00000000E+00  0.00000000E+00  0.00000000E+00
  0.00000000E+00  0.00000000E+00  0.00000000E+00
  0.00000000E+00  0.00000000E+00  0.00000000E+00
  0.00000000E+00  0.00000000E+00  0.00000000E+00
  0.00000000E+00  0.00000000E+00  0.00000000E+00
  0.00000000E+00  0.00000000E+00  0.00000000E+00
  0.00000000E+00  0.00000000E+00  0.00000000E+00
  0.00000000E+00  0.00000000E+00  0.00000000E+00
  0.00000000E+00  0.00000000E+00  0.00000000E+00
  0.00000000E+00  0.00000000E+00  0.00000000E+00
  0.00000000E+00  0.00000000E+00  0.00000000E+00
