title                                   
    1.000000000000000     
    10.1967998961909068    0.0332729038657990   -0.0486631289048299
     0.0331628958073159   10.1906467504823723   -0.0047780230627391
    -0.0324906658213508   -0.0036528625043932    6.9358191914278473
   Hf   Nb   V    W    Zr
     6    15     2     1    12
Direct
  0.8417405827992395  0.4865070455841186  0.7737018244657481
  0.1626311303940249  0.8408482007274485  0.2416632595068268
  0.6720133076842379  0.0059511681525349  0.4918430435030964
  0.8374332368758742  0.8307136381072587  0.2139307860219275
  0.4982628254835583  0.8397292796553575  0.7423616026995128
  0.8444046941933473  0.4898185041791503  0.2293020330059183
  0.6633770467356660  0.6622747964804792 -0.0235262935483141
  0.8395193613652423  0.1657556018927708  0.2280698038194695
  0.0144586394120238  0.6608858324527005 -0.0161172056565567
  0.6531069106796935  0.3267409400745296  0.0089126118984585
  0.5115471240801102  0.4953319966986128  0.7658979981308398
  0.1640692102211570  0.8468629685308122  0.7513483846768209
  0.4971373305706590  0.1717802297104715  0.2440979545317220
  0.1591806797067492  0.1736259628206606  0.7554882607213301
  0.1533487599880516  0.4914716973607343  0.2314536489566875
  0.5036478719877790  0.1652611121728750  0.7588310003776083
  0.0088964583675036  0.3374811448693111  0.5121548968272480
  0.3299616317677069  0.3375163006440459 -0.0079673193185798
  0.3328798496004141  0.0191304140589055  0.5150981804877385
  0.6601987592759712  0.0082360845852518  0.0121575959624348
  0.8351592746845979  0.8358428514068388  0.7843396227201437
  0.0262456593333752  0.3401398992832220 -0.0121626608037302
  0.1468141925296014  0.4814161160882583  0.7704226576954589
  0.0048499012902282 -0.0000885836489143 -0.0114612292686262
  0.6831693530780928  0.6700519463000467  0.5167302145773436
  0.4945069970216688  0.8313279009308699  0.2522344893711944
  0.0024260186540446  0.6638839579687154  0.5095301699573153
  0.5041023639710690  0.5060041638061745  0.2381729933881498
  0.6702237192729180  0.3199900250839102  0.4950009008327892
  0.3309203100915302  0.3399158628742309  0.5111898701904314
  0.3328461384707224  0.0144389634747887 -0.0129928831644429
  0.1560665089985665  0.1703291442148931  0.2468732212717557
  0.3182906776028984  0.6496593879486136  0.5165685030347307
  0.3215738886296238  0.6562089682368437 -0.0244665777861127
 -0.0142497032249715 -0.0058581193929371  0.5104207547622197
  0.8392392884070262  0.1708145966664160  0.7808978861514427
 
  0.00000000E+00  0.00000000E+00  0.00000000E+00
  0.00000000E+00  0.00000000E+00  0.00000000E+00
  0.00000000E+00  0.00000000E+00  0.00000000E+00
  0.00000000E+00  0.00000000E+00  0.00000000E+00
  0.00000000E+00  0.00000000E+00  0.00000000E+00
  0.00000000E+00  0.00000000E+00  0.00000000E+00
  0.00000000E+00  0.00000000E+00  0.00000000E+00
  0.00000000E+00  0.00000000E+00  0.00000000E+00
  0.00000000E+00  0.00000000E+00  0.00000000E+00
  0.00000000E+00  0.00000000E+00  0.00000000E+00
  0.00000000E+00  0.00000000E+00  0.00000000E+00
  0.00000000E+00  0.00000000E+00  0.00000000E+00
  0.00000000E+00  0.00000000E+00  0.00000000E+00
  0.00000000E+00  0.00000000E+00  0.00000000E+00
  0.00000000E+00  0.00000000E+00  0.00000000E+00
  0.00000000E+00  0.00000000E+00  0.00000000E+00
  0.00000000E+00  0.00000000E+00  0.00000000E+00
  0.00000000E+00  0.00000000E+00  0.00000000E+00
  0.00000000E+00  0.00000000E+00  0.00000000E+00
  0.00000000E+00  0.00000000E+00  0.00000000E+00
  0.00000000E+00  0.00000000E+00  0.00000000E+00
  0.00000000E+00  0.00000000E+00  0.00000000E+00
  0.00000000E+00  0.00000000E+00  0.00000000E+00
  0.00000000E+00  0.00000000E+00  0.00000000E+00
  0.00000000E+00  0.00000000E+00  0.00000000E+00
  0.00000000E+00  0.00000000E+00  0.00000000E+00
  0.00000000E+00  0.00000000E+00  0.00000000E+00
  0.00000000E+00  0.00000000E+00  0.00000000E+00
  0.00000000E+00  0.00000000E+00  0.00000000E+00
  0.00000000E+00  0.00000000E+00  0.00000000E+00
  0.00000000E+00  0.00000000E+00  0.00000000E+00
  0.00000000E+00  0.00000000E+00  0.00000000E+00
  0.00000000E+00  0.00000000E+00  0.00000000E+00
  0.00000000E+00  0.00000000E+00  0.00000000E+00
  0.00000000E+00  0.00000000E+00  0.00000000E+00
  0.00000000E+00  0.00000000E+00  0.00000000E+00
