title                                   
    1.000000000000000     
     9.4316614798471168    0.0413078873651654   -0.0228706077871543
     0.0415527948668349    9.4167726302986416    0.0112575858058082
    -0.0154141564354878    0.0074457666608536    6.2738383674525551
   Cr   Hf   Mo   V 
     4     7    11    14
Direct
  0.1790621666539403  0.4865967697901497  0.2542056824972254
  0.8403617329594838  0.1654049654410364  0.2603335814464209
  0.3246190713519726  0.6622541854208875  0.5071217139436730
  0.6784581685659936  0.6582657627825513  0.4991688268558698
  0.0134986823402795  0.6667541808017707  0.4884877188954419
  0.3231753192100216  0.0041328849684108  0.4859630263518827
  0.0031846354128343  0.6525857976434500  0.0053504286317952
  0.8285147982163457  0.8436613295742975  0.7425579056915754
  0.4965611282971088  0.5049824628945618  0.2784660596194000
  0.6730669515369534  0.3301827548211207  0.0072318180661278
  0.5043026255027768  0.8209394881859937  0.7448358153970088
  0.0054197477729046  0.0080375983807676 -0.0056745380013465
  0.1761055228522194  0.4889231567745924  0.7471773408920074
  0.4958694482855526  0.1701718379555426  0.7495742305622514
  0.6638883198845452  0.0100998962932075  0.0065559996277237
  0.8280142861106984  0.4952880161495204  0.7441889180845854
 -0.0026507596388973  0.3302080622712803  0.4959165114782740
  0.6649407939719602  0.0138455605056063  0.4884300152440352
  0.5017705820790752  0.8277995803550092  0.2456607688032728
  0.3262408775988151  0.3275187020303235  0.0035424115154204
  0.8308993456951366  0.8407948232500599  0.2469791284220610
  0.3292454812353106  0.6657748267415526  0.0036261629775854
  0.4977301554940260  0.1676925394341290  0.2519760540998497
  0.4940183329332483  0.5077064828866210  0.7511615692236200
  0.1797961391513276  0.8342539942851143  0.7606676765986751
 -0.0015429154249991  0.3309643124509684  0.0030625656207288
  0.6694100342276174  0.3310380291297300  0.5209147813932277
 -0.0013206768431652  0.0112323300847145  0.4759600535759235
  0.8412496214725049  0.1631431329934928  0.7440938281231678
  0.3317143025208522  0.0041755357465816 -0.0030076669513153
  0.6780212104218858  0.6622306713051734  0.0172715840276532
  0.3236991608484426  0.3298491788928239  0.5073891200344484
  0.1542079037801865  0.1700381410758397  0.7492137466072049
  0.8215631873705834  0.4998984096644613  0.2744572735878846
  0.1540570642984933  0.1720340431115771  0.2317109064187913
  0.1728475538539652  0.8415205559070801  0.2154289806378514
 
  0.00000000E+00  0.00000000E+00  0.00000000E+00
  0.00000000E+00  0.00000000E+00  0.00000000E+00
  0.00000000E+00  0.00000000E+00  0.00000000E+00
  0.00000000E+00  0.00000000E+00  0.00000000E+00
  0.00000000E+00  0.00000000E+00  0.00000000E+00
  0.00000000E+00  0.00000000E+00  0.00000000E+00
  0.00000000E+00  0.00000000E+00  0.00000000E+00
  0.00000000E+00  0.00000000E+00  0.00000000E+00
  0.00000000E+00  0.00000000E+00  0.00000000E+00
  0.00000000E+00  0.00000000E+00  0.00000000E+00
  0.00000000E+00  0.00000000E+00  0.00000000E+00
  0.00000000E+00  0.00000000E+00  0.00000000E+00
  0.00000000E+00  0.00000000E+00  0.00000000E+00
  0.00000000E+00  0.00000000E+00  0.00000000E+00
  0.00000000E+00  0.00000000E+00  0.00000000E+00
  0.00000000E+00  0.00000000E+00  0.00000000E+00
  0.00000000E+00  0.00000000E+00  0.00000000E+00
  0.00000000E+00  0.00000000E+00  0.00000000E+00
  0.00000000E+00  0.00000000E+00  0.00000000E+00
  0.00000000E+00  0.00000000E+00  0.00000000E+00
  0.00000000E+00  0.00000000E+00  0.00000000E+00
  0.00000000E+00  0.00000000E+00  0.00000000E+00
  0.00000000E+00  0.00000000E+00  0.00000000E+00
  0.00000000E+00  0.00000000E+00  0.00000000E+00
  0.00000000E+00  0.00000000E+00  0.00000000E+00
  0.00000000E+00  0.00000000E+00  0.00000000E+00
  0.00000000E+00  0.00000000E+00  0.00000000E+00
  0.00000000E+00  0.00000000E+00  0.00000000E+00
  0.00000000E+00  0.00000000E+00  0.00000000E+00
  0.00000000E+00  0.00000000E+00  0.00000000E+00
  0.00000000E+00  0.00000000E+00  0.00000000E+00
  0.00000000E+00  0.00000000E+00  0.00000000E+00
  0.00000000E+00  0.00000000E+00  0.00000000E+00
  0.00000000E+00  0.00000000E+00  0.00000000E+00
  0.00000000E+00  0.00000000E+00  0.00000000E+00
  0.00000000E+00  0.00000000E+00  0.00000000E+00
