title                                   
    1.000000000000000     
    10.0536811578945571   -0.0101786716504324    0.0160671586857352
    -0.0102116122024403   10.1244659363143423   -0.0131964156645791
     0.0107699681316690   -0.0087450151360847    6.8078743908229180
   Hf   Nb   Ta   Ti   W 
    15    12     1     2     6
Direct
  0.3325149303293555  0.3395611035103690  0.4981638239390557
  0.5032567718609592  0.5096043733174327  0.7868072365796627
  0.3365256471680456  0.6580040898445042  0.4957324647532161
  0.0011609406764192 -0.0023884210769056  0.0060259798547794
  0.3400279543929798  0.0006067707484604  0.5174515004180695
  0.8279582495943145  0.1721979717041548  0.7453676639601357
  0.6695950179282607  0.6698095869487928  0.4987916801744001
  0.6567932824474442  0.3548361933925966  0.4951049402826197
  0.0100220687639756  0.3357689185209755  0.0081616648294668
  0.1610741683937600  0.8157819877724967  0.7581209674927537
  0.8242107434522371  0.1645914597646404  0.2543680547428409
  0.4946721551316736  0.8328082512931612  0.2332226058184283
  0.3282710974445377  0.0088273523857235 -0.0179138258387362
  0.3196830867232506  0.3286377455291584  0.0035185518432273
  0.5180892519427920  0.1619205188650516  0.2358971126998219
  0.1596250198123212  0.5130694624120504  0.7557910396362586
  0.6744316578500282 -0.0202778136428983 -0.0108480506805920
  0.6645778468854231 -0.0170034621744948  0.5101564240378117
  0.8358311605636479  0.5015081601619652  0.2342563791469974
  0.0025223774105463  0.3460324419979404  0.4897339401097638
  0.8424892469257108  0.8269153552153379  0.7479485962795762
  0.1551289490126065  0.1622482001047489  0.2799185059382450
 -0.0054802332453834 -0.0126286886393994  0.4889657783207421
  0.5239455092891628  0.1697839020703158  0.7639287283403489
  0.4985278238286852  0.5042957816814357  0.2180445870815257
  0.1455430691116818  0.1711612050602812  0.7182921581245718
 -0.0037788090673796  0.6625149119190969  0.4878224631371251
  0.1692557122499227  0.8226998726130841  0.2400472807771785
  0.8354473753024272  0.5008819035096578  0.7665902140988873
  0.6828201121224757  0.6782790607050168  0.0034355774647132
  0.3267335031080757  0.6654999244939643  0.0074761190373244
  0.6731434518419277  0.3423591617476855  0.0064436506183335
  0.5012065183956199  0.8288303593472797  0.7635806443848181
  0.1617150113685885  0.5095656193786421  0.2481707003395632
  0.8382366444198295  0.8305830843279892  0.2493978460318931
 -0.0057773134359241  0.6631136551896895  0.0120269962251729
 
  0.00000000E+00  0.00000000E+00  0.00000000E+00
  0.00000000E+00  0.00000000E+00  0.00000000E+00
  0.00000000E+00  0.00000000E+00  0.00000000E+00
  0.00000000E+00  0.00000000E+00  0.00000000E+00
  0.00000000E+00  0.00000000E+00  0.00000000E+00
  0.00000000E+00  0.00000000E+00  0.00000000E+00
  0.00000000E+00  0.00000000E+00  0.00000000E+00
  0.00000000E+00  0.00000000E+00  0.00000000E+00
  0.00000000E+00  0.00000000E+00  0.00000000E+00
  0.00000000E+00  0.00000000E+00  0.00000000E+00
  0.00000000E+00  0.00000000E+00  0.00000000E+00
  0.00000000E+00  0.00000000E+00  0.00000000E+00
  0.00000000E+00  0.00000000E+00  0.00000000E+00
  0.00000000E+00  0.00000000E+00  0.00000000E+00
  0.00000000E+00  0.00000000E+00  0.00000000E+00
  0.00000000E+00  0.00000000E+00  0.00000000E+00
  0.00000000E+00  0.00000000E+00  0.00000000E+00
  0.00000000E+00  0.00000000E+00  0.00000000E+00
  0.00000000E+00  0.00000000E+00  0.00000000E+00
  0.00000000E+00  0.00000000E+00  0.00000000E+00
  0.00000000E+00  0.00000000E+00  0.00000000E+00
  0.00000000E+00  0.00000000E+00  0.00000000E+00
  0.00000000E+00  0.00000000E+00  0.00000000E+00
  0.00000000E+00  0.00000000E+00  0.00000000E+00
  0.00000000E+00  0.00000000E+00  0.00000000E+00
  0.00000000E+00  0.00000000E+00  0.00000000E+00
  0.00000000E+00  0.00000000E+00  0.00000000E+00
  0.00000000E+00  0.00000000E+00  0.00000000E+00
  0.00000000E+00  0.00000000E+00  0.00000000E+00
  0.00000000E+00  0.00000000E+00  0.00000000E+00
  0.00000000E+00  0.00000000E+00  0.00000000E+00
  0.00000000E+00  0.00000000E+00  0.00000000E+00
  0.00000000E+00  0.00000000E+00  0.00000000E+00
  0.00000000E+00  0.00000000E+00  0.00000000E+00
  0.00000000E+00  0.00000000E+00  0.00000000E+00
  0.00000000E+00  0.00000000E+00  0.00000000E+00
