title                                   
    1.000000000000000     
     9.6678725674114592    0.0013629045522600   -0.0023440414521765
     0.0013881957564837    9.6270904980981058    0.0155479382658014
    -0.0015561030500638    0.0103738166071945    6.4088460033880619
   Mo   Nb   Ta   Ti   V 
    15     3    11     4     3
Direct
  0.1686739358187086  0.1690108342645679  0.2559295758101657
 -0.0032995742018745  0.6633483833101714 -0.0016858440174754
  0.6684028289759925  0.6654168462125434  0.5036790221276499
  0.0015203806624587  0.3314924396875078  0.0035709391304822
  0.0013511823945141  0.0002483262971766  0.4994189273294357
  0.8375336719062413  0.5009249624977339  0.2491494587179850
  0.1644816258740488  0.8336154425358294  0.2519310746145245
  0.1664155308688592  0.4938984522192392  0.2486747988891699
  0.8312487061916818  0.8313963082084529  0.7484498163033237
  0.3318878164922577  0.3341414057708249  0.0002799188403069
  0.3308873873953078  0.3326117681450569  0.5031472104968714
  0.1690244951999363  0.1697062184508536  0.7488142709138969
  0.6712681119325301  0.0009266099260667 -0.0015860167146714
  0.0022575793119959  0.3324254995020431  0.4984778768839851
  0.8382933753290142  0.1673949703908741  0.2522497050205214
 -0.0012191059951908  0.6620080329182864  0.4971135207082406
  0.3255541710029545  0.0006415787449626  0.0035849075920628
  0.6724425176567175  0.3374203079334686  0.5031976359979591
  0.6660045554997969  0.6598301360770583 -0.0115652721861613
  0.4988400446908660  0.4996899865030010  0.2543078441316736
  0.1646202899553466  0.8331166557858463  0.7468047783013457
  0.8383862337194352  0.1691765323527582  0.7513473170715078
  0.4960032856628802  0.1669121311380002  0.2516038096246674
  0.3299340953314526  0.6675210533245789  0.4969791850321252
  0.6700911767430823  0.0030279633816457  0.5018478601401986
  0.0025285122113750  0.0008496685690651  0.0049482849026055
  0.6721286494565444  0.3410204518228266 -0.0014930366125762
  0.8287922318185280  0.8311450127479166  0.2490652941989798
  0.3322690339914255  0.6647217596172162 -0.0004958534394613
  0.5043305786746586  0.8388775544018969  0.2499327783063842
  0.4985044066180852  0.8410966831087824  0.7468497691023379
  0.1634191226408611  0.4920345212310623  0.7520737553254194
  0.4961224732388560  0.1669403027651211  0.7509885944444912
  0.8419370877331145  0.4982199404587533  0.7481276366625688
  0.3236546317510555  0.0026651607282850  0.4963421609396539
  0.4957089534464811  0.4965260989705251  0.7479382954098064
 
  0.00000000E+00  0.00000000E+00  0.00000000E+00
  0.00000000E+00  0.00000000E+00  0.00000000E+00
  0.00000000E+00  0.00000000E+00  0.00000000E+00
  0.00000000E+00  0.00000000E+00  0.00000000E+00
  0.00000000E+00  0.00000000E+00  0.00000000E+00
  0.00000000E+00  0.00000000E+00  0.00000000E+00
  0.00000000E+00  0.00000000E+00  0.00000000E+00
  0.00000000E+00  0.00000000E+00  0.00000000E+00
  0.00000000E+00  0.00000000E+00  0.00000000E+00
  0.00000000E+00  0.00000000E+00  0.00000000E+00
  0.00000000E+00  0.00000000E+00  0.00000000E+00
  0.00000000E+00  0.00000000E+00  0.00000000E+00
  0.00000000E+00  0.00000000E+00  0.00000000E+00
  0.00000000E+00  0.00000000E+00  0.00000000E+00
  0.00000000E+00  0.00000000E+00  0.00000000E+00
  0.00000000E+00  0.00000000E+00  0.00000000E+00
  0.00000000E+00  0.00000000E+00  0.00000000E+00
  0.00000000E+00  0.00000000E+00  0.00000000E+00
  0.00000000E+00  0.00000000E+00  0.00000000E+00
  0.00000000E+00  0.00000000E+00  0.00000000E+00
  0.00000000E+00  0.00000000E+00  0.00000000E+00
  0.00000000E+00  0.00000000E+00  0.00000000E+00
  0.00000000E+00  0.00000000E+00  0.00000000E+00
  0.00000000E+00  0.00000000E+00  0.00000000E+00
  0.00000000E+00  0.00000000E+00  0.00000000E+00
  0.00000000E+00  0.00000000E+00  0.00000000E+00
  0.00000000E+00  0.00000000E+00  0.00000000E+00
  0.00000000E+00  0.00000000E+00  0.00000000E+00
  0.00000000E+00  0.00000000E+00  0.00000000E+00
  0.00000000E+00  0.00000000E+00  0.00000000E+00
  0.00000000E+00  0.00000000E+00  0.00000000E+00
  0.00000000E+00  0.00000000E+00  0.00000000E+00
  0.00000000E+00  0.00000000E+00  0.00000000E+00
  0.00000000E+00  0.00000000E+00  0.00000000E+00
  0.00000000E+00  0.00000000E+00  0.00000000E+00
  0.00000000E+00  0.00000000E+00  0.00000000E+00
