title                                   
    1.000000000000000     
     9.8841664871520116   -0.0283206286623773    0.0014998414182851
    -0.0282749833578789    9.9005789396847508   -0.0051378343862891
     0.0009713403359195   -0.0034206513269531    6.5494929621610547
   Mo   Nb   W    Zr
     9     9     9     9
Direct
  0.8334269852629012  0.1642487099381801  0.7506254945119698
  0.5015582398828129  0.5007763256511811  0.7478370318713096
  0.3440897566951630 -0.0024269925590736  0.0062298589281692
 -0.0088960716495614  0.0000431635362804  0.0046561539984428
  0.4970123611418424  0.8413601114037658  0.7495510124070139
  0.6655492867683753  0.3282093598370430  0.5078998138228440
  0.5104164495927829  0.1581809991673353  0.2479059594105912
 -0.0042939580372935  0.6696783997052388  0.4964148478697780
  0.4992494975864978  0.5012375138519912  0.2536246541352306
  0.1670676473615509  0.8361502493187866  0.2516790968060077
  0.8332982405516534  0.1645401826053512  0.2481399964042102
  0.5113466110680249  0.1612684834144515  0.7498398308948905
  0.3396348290291525  0.6669242042681022  0.0069185112976041
  0.8355552675574992  0.8436502217982352  0.7465657453884362
 -0.0015699472307553  0.3291128258091880  0.4983391464297884
  0.1594185739844100  0.1598316629304154  0.2433593017507106
  0.6639123313562906  0.3296033091731838 -0.0024956382360158
  0.3449264322662474 -0.0011155327801465  0.4911737207630097
  0.1599302431196742  0.5056452305664298  0.2573427366068719
  0.6673021483049152 -0.0012144456422304  0.4992112935319263
 -0.0092020231747869  0.0006257613948741  0.4933311971885753
  0.6666718496355726  0.0004260916637011  0.0001212294898949
  0.3414212981928721  0.6672009055219351  0.4914927141190504
 -0.0045124724550511  0.3318043767438866  0.0002515158439947
  0.8329156580538190  0.8473447149012304  0.2558304883434046
  0.8373220769258679  0.4856582715082130  0.7445385346593149
  0.4958538412432631  0.8401062958711215  0.2502443086351252
  0.1613981825277357  0.5074701801877507  0.7435816535091596
 -0.0108131021775286  0.6674817771909358  0.0052657229464994
  0.6613502935985651  0.6677174490976256  0.5057211848195090
  0.3431454414699220  0.3379281907293531  0.4891420770809708
  0.1677596644081286  0.8367938898533116  0.7462589193704932
  0.1631855957695720  0.1581153781018184  0.7544000963030421
  0.3403312707512035  0.3376479714922294  0.0079104646547584
  0.6607344566408625  0.6695684786923064 -0.0030345841643620
  0.8335030439777971  0.4884062850559978  0.2601259086077791
 
  0.00000000E+00  0.00000000E+00  0.00000000E+00
  0.00000000E+00  0.00000000E+00  0.00000000E+00
  0.00000000E+00  0.00000000E+00  0.00000000E+00
  0.00000000E+00  0.00000000E+00  0.00000000E+00
  0.00000000E+00  0.00000000E+00  0.00000000E+00
  0.00000000E+00  0.00000000E+00  0.00000000E+00
  0.00000000E+00  0.00000000E+00  0.00000000E+00
  0.00000000E+00  0.00000000E+00  0.00000000E+00
  0.00000000E+00  0.00000000E+00  0.00000000E+00
  0.00000000E+00  0.00000000E+00  0.00000000E+00
  0.00000000E+00  0.00000000E+00  0.00000000E+00
  0.00000000E+00  0.00000000E+00  0.00000000E+00
  0.00000000E+00  0.00000000E+00  0.00000000E+00
  0.00000000E+00  0.00000000E+00  0.00000000E+00
  0.00000000E+00  0.00000000E+00  0.00000000E+00
  0.00000000E+00  0.00000000E+00  0.00000000E+00
  0.00000000E+00  0.00000000E+00  0.00000000E+00
  0.00000000E+00  0.00000000E+00  0.00000000E+00
  0.00000000E+00  0.00000000E+00  0.00000000E+00
  0.00000000E+00  0.00000000E+00  0.00000000E+00
  0.00000000E+00  0.00000000E+00  0.00000000E+00
  0.00000000E+00  0.00000000E+00  0.00000000E+00
  0.00000000E+00  0.00000000E+00  0.00000000E+00
  0.00000000E+00  0.00000000E+00  0.00000000E+00
  0.00000000E+00  0.00000000E+00  0.00000000E+00
  0.00000000E+00  0.00000000E+00  0.00000000E+00
  0.00000000E+00  0.00000000E+00  0.00000000E+00
  0.00000000E+00  0.00000000E+00  0.00000000E+00
  0.00000000E+00  0.00000000E+00  0.00000000E+00
  0.00000000E+00  0.00000000E+00  0.00000000E+00
  0.00000000E+00  0.00000000E+00  0.00000000E+00
  0.00000000E+00  0.00000000E+00  0.00000000E+00
  0.00000000E+00  0.00000000E+00  0.00000000E+00
  0.00000000E+00  0.00000000E+00  0.00000000E+00
  0.00000000E+00  0.00000000E+00  0.00000000E+00
  0.00000000E+00  0.00000000E+00  0.00000000E+00
