title                                   
    1.000000000000000     
     9.2626020374135045    0.0005055911059437   -0.0150481386265114
     0.0005144539589186    9.2517118511200298    0.0011269520765436
    -0.0100342729515869    0.0007559203531308    6.1605007200841140
   Cr   Mo   Ti   W 
    11    14     4     7
Direct
  0.8321694490068343  0.8319221250028564  0.7467440375982689
  0.5038676175227429  0.8329381553090330  0.2500178457654137
  0.0025046815385653  0.3309505964252737  0.0029661170764311
  0.1605811066541536  0.1649656814324726  0.2515524700373792
  0.0007639370464365  0.0001031106389043  0.4968464710140827
  0.1642805144608615  0.8352421788678940  0.2514904372704116
  0.0014387173291163  0.3312173726855552  0.4979404825924821
 -0.0009848679045569  0.6698262524680876  0.5012456183269401
  0.5057096697136867  0.5042128675070656  0.2502940783146714
  0.6668749595883243  0.6686327719229471  0.4996647894645617
  0.6689193315066878 -0.0037342616233419  0.0011078859706185
  0.8358474590720513  0.5012106560292411  0.2551179872073056
  0.3287298710177700 -0.0018091793153332  0.0044785515954853
  0.1617829480611909  0.8336380353975292  0.7412654355960043
  0.6694464480283753 -0.0049893182333150  0.5017906385088959
  0.6668223324069571  0.3357231888695547  0.0010809717820596
  0.3278938227517461 -0.0019742316807559  0.4929835371601252
  0.8371423360047459  0.1646887129422159  0.7506862980988515
  0.8368605562212019  0.5027123452587159  0.7457880749928888
  0.8344168526719513  0.8341583131263325  0.2581177021126891
  0.5021460345206668  0.5035230766238631  0.7483768806817298
  0.5016065060846433  0.1621804140366059  0.7521941724788606
  0.1602136644154384  0.1680964666866317  0.7457804377095529
  0.1600344112868420  0.4986131751744321  0.2531107595983342
  0.5041467669524383  0.8343175695935077  0.7499896633670003
  0.3317212182629439  0.3334970130941787  0.4948723092433471
  0.3306002054918448  0.3333363427289781  0.0047413281612795
  0.0007342070508335 -0.0023160800222964 -0.0002835708357402
  0.3354303313902277  0.6687080518446109  0.4922531997680134
  0.6671696325448634  0.3350567092888276  0.4990319037463053
  0.6664362549999440  0.6706273321822309  0.0043530018293870
  0.8398254260912360  0.1664909981036128  0.2514394684416097
  0.1583608954534388  0.4992881473115218  0.7473061052493269
 -0.0009387910224329  0.6713421554691780  0.0018261458909123
  0.5030930823715559  0.1604171773242130  0.2467761488735417
  0.3343524114066754  0.6671860775289722  0.0070526153109724
 
  0.00000000E+00  0.00000000E+00  0.00000000E+00
  0.00000000E+00  0.00000000E+00  0.00000000E+00
  0.00000000E+00  0.00000000E+00  0.00000000E+00
  0.00000000E+00  0.00000000E+00  0.00000000E+00
  0.00000000E+00  0.00000000E+00  0.00000000E+00
  0.00000000E+00  0.00000000E+00  0.00000000E+00
  0.00000000E+00  0.00000000E+00  0.00000000E+00
  0.00000000E+00  0.00000000E+00  0.00000000E+00
  0.00000000E+00  0.00000000E+00  0.00000000E+00
  0.00000000E+00  0.00000000E+00  0.00000000E+00
  0.00000000E+00  0.00000000E+00  0.00000000E+00
  0.00000000E+00  0.00000000E+00  0.00000000E+00
  0.00000000E+00  0.00000000E+00  0.00000000E+00
  0.00000000E+00  0.00000000E+00  0.00000000E+00
  0.00000000E+00  0.00000000E+00  0.00000000E+00
  0.00000000E+00  0.00000000E+00  0.00000000E+00
  0.00000000E+00  0.00000000E+00  0.00000000E+00
  0.00000000E+00  0.00000000E+00  0.00000000E+00
  0.00000000E+00  0.00000000E+00  0.00000000E+00
  0.00000000E+00  0.00000000E+00  0.00000000E+00
  0.00000000E+00  0.00000000E+00  0.00000000E+00
  0.00000000E+00  0.00000000E+00  0.00000000E+00
  0.00000000E+00  0.00000000E+00  0.00000000E+00
  0.00000000E+00  0.00000000E+00  0.00000000E+00
  0.00000000E+00  0.00000000E+00  0.00000000E+00
  0.00000000E+00  0.00000000E+00  0.00000000E+00
  0.00000000E+00  0.00000000E+00  0.00000000E+00
  0.00000000E+00  0.00000000E+00  0.00000000E+00
  0.00000000E+00  0.00000000E+00  0.00000000E+00
  0.00000000E+00  0.00000000E+00  0.00000000E+00
  0.00000000E+00  0.00000000E+00  0.00000000E+00
  0.00000000E+00  0.00000000E+00  0.00000000E+00
  0.00000000E+00  0.00000000E+00  0.00000000E+00
  0.00000000E+00  0.00000000E+00  0.00000000E+00
  0.00000000E+00  0.00000000E+00  0.00000000E+00
  0.00000000E+00  0.00000000E+00  0.00000000E+00
