title                                   
    1.000000000000000     
     9.8700178845912045   -0.0069921544142195   -0.0334922964694448
    -0.0070974752639881    9.8056652757475042    0.0146304523041600
    -0.0223045991868690    0.0097332038987095    6.5744019755982688
   Hf   Mo   Nb   W 
     9     9     9     9
Direct
  0.1758812061240979  0.1724159460060327  0.7560389841387541
 -0.0112752540856869  0.3347072602118393  0.5037213912509343
  0.3396694847286174 -0.0054328293002169  0.0140930618341302
  0.0030263099454568  0.0003718526782893  0.4935376739770638
 -0.0001711677544891  0.6675123917762726  0.4991501790801158
  0.6652295033839479  0.3317512628647281  0.5007664849638671
  0.1734852833827523  0.5013802371832164  0.2403469737058071
  0.6614195883174219  0.6606255091553910  0.4930481629928298
  0.8296345952535161  0.8367399894917652  0.7673058045982816
  0.5001545331115436  0.1675218921544790  0.7549149344410454
  0.0054466981550189  0.6665264686026258 -0.0089261789903866
  0.3448217207732100  0.3363838732347227 -0.0012782411548822
  0.5031200162401082  0.1653225845024011  0.2538788965146512
  0.6624071658730362  0.0071063337051455  0.0068167304264182
  0.1720947285075115  0.8271727864721735  0.2509088506996467
  0.3333643896352500  0.6691055831335855  0.5033115918188172
  0.6656049718339574  0.3301913038369861 -0.0039298526450827
  0.4970151302159715  0.8308954788418694  0.2559320716873706
  0.0038399184075705  0.0006783780538661  0.0097109477827787
  0.8287992429170998  0.8369527728656309  0.2286348025471125
  0.4971019514635776  0.8316058460709641  0.7501255110424829
  0.6619935647126307  0.0059406315934745  0.4970371642507871
 -0.0076341298420158  0.3342297499494631 -0.0070200369028998
  0.1756625985773131  0.1735220404655513  0.2509187151589898
  0.6570501279534089  0.6605232442161162 -0.0010048431690582
  0.8305258098838975  0.4993257794912888  0.2264524930072709
  0.3438035691812114  0.3344745146788541  0.5020918224283968
  0.1732370822199462  0.5026642596161663  0.7563209205498458
  0.3375614571771152 -0.0044619708341160  0.5004986237869027
  0.4911574056671635  0.4975888733527760  0.2393315980309474
  0.3343943749030581  0.6696265792111102 -0.0042886530288654
  0.8308604992034612  0.5016673685704121  0.7627009336342940
  0.8284539421881618  0.1621654478077348  0.7618641363599004
  0.4937872523789760  0.4993071260005497  0.7555643473337788
  0.8267640853137718  0.1637345186078926  0.2380015614187622
  0.1717123440524118  0.8301569157309584  0.7534224364291917
 
  0.00000000E+00  0.00000000E+00  0.00000000E+00
  0.00000000E+00  0.00000000E+00  0.00000000E+00
  0.00000000E+00  0.00000000E+00  0.00000000E+00
  0.00000000E+00  0.00000000E+00  0.00000000E+00
  0.00000000E+00  0.00000000E+00  0.00000000E+00
  0.00000000E+00  0.00000000E+00  0.00000000E+00
  0.00000000E+00  0.00000000E+00  0.00000000E+00
  0.00000000E+00  0.00000000E+00  0.00000000E+00
  0.00000000E+00  0.00000000E+00  0.00000000E+00
  0.00000000E+00  0.00000000E+00  0.00000000E+00
  0.00000000E+00  0.00000000E+00  0.00000000E+00
  0.00000000E+00  0.00000000E+00  0.00000000E+00
  0.00000000E+00  0.00000000E+00  0.00000000E+00
  0.00000000E+00  0.00000000E+00  0.00000000E+00
  0.00000000E+00  0.00000000E+00  0.00000000E+00
  0.00000000E+00  0.00000000E+00  0.00000000E+00
  0.00000000E+00  0.00000000E+00  0.00000000E+00
  0.00000000E+00  0.00000000E+00  0.00000000E+00
  0.00000000E+00  0.00000000E+00  0.00000000E+00
  0.00000000E+00  0.00000000E+00  0.00000000E+00
  0.00000000E+00  0.00000000E+00  0.00000000E+00
  0.00000000E+00  0.00000000E+00  0.00000000E+00
  0.00000000E+00  0.00000000E+00  0.00000000E+00
  0.00000000E+00  0.00000000E+00  0.00000000E+00
  0.00000000E+00  0.00000000E+00  0.00000000E+00
  0.00000000E+00  0.00000000E+00  0.00000000E+00
  0.00000000E+00  0.00000000E+00  0.00000000E+00
  0.00000000E+00  0.00000000E+00  0.00000000E+00
  0.00000000E+00  0.00000000E+00  0.00000000E+00
  0.00000000E+00  0.00000000E+00  0.00000000E+00
  0.00000000E+00  0.00000000E+00  0.00000000E+00
  0.00000000E+00  0.00000000E+00  0.00000000E+00
  0.00000000E+00  0.00000000E+00  0.00000000E+00
  0.00000000E+00  0.00000000E+00  0.00000000E+00
  0.00000000E+00  0.00000000E+00  0.00000000E+00
  0.00000000E+00  0.00000000E+00  0.00000000E+00
