title                                   
    1.000000000000000     
     9.3796788856581959    0.0615114953018841    0.0118410849716511
     0.0613933104831418    9.4070588344115560    0.0222232058157145
     0.0079178631928198    0.0148653049715119    6.2695755353957097
   Nb   V    W 
    10    18     8
Direct
  0.3330428463159073  0.6688547064155825  0.5023091974070296
  0.0037032197690612 -0.0032125781634197  0.4916395330728580
  0.6652040265578706  0.0017249346488583  0.4974338783471535
  0.8358238886010452  0.8207858144417224  0.7515853126317914
  0.8304560936060956  0.1744765529901313  0.7467250019875530
  0.3341311079141794  0.0005979209844638 -0.0013450656074866
  0.6667823926560893  0.0020941350237089  0.0018418541991741
  0.1591315720741158  0.5019814375582167  0.7480428198438941
  0.3353595610420312  0.0031005797019896  0.4973745633859554
 -0.0057848112777827  0.3350436717569130  0.0072450156015312
  0.8387114207222073  0.8204860835506155  0.2473417618666504
  0.5022102890018315  0.8291805926800536  0.7527826526622762
  0.6688605253083898  0.6613807054897405  0.0046037078068630
 -0.0026737040392174  0.6671594672945135  0.0111968313890554
  0.5018731014429521  0.1771883482299098  0.2496318299106556
  0.4996750929985484  0.1769386704570152  0.7484144338882776
  0.8272786679711969  0.5020400027464657  0.7462149800091287
  0.8328846896783874  0.1731765150161126  0.2510805608316312
  0.1606587693632304  0.8289422431280830  0.2426742046776813
 -0.0051504518164524  0.6630187206290682  0.4909159947885378
 -0.0025345089321363  0.3355706583589846  0.4948641455079991
  0.3364626038677222  0.3309796821376415  0.4979218147149473
  0.6698928813413981  0.6606435075572729  0.4980790510070808
  0.6655274403360498  0.3377686822539679  0.4964295688024787
  0.1676061922782149  0.1694257397336358  0.2494148090311354
  0.1639543556814178  0.8310552422358940  0.7560647271234066
  0.6639579646909762  0.3380157613358015  0.0051782109117835
  0.8295712790500813  0.5029859055364974  0.2580116608156018
  0.0034997519442506 -0.0041644901493729  0.0039178264626636
  0.5065870138858211  0.4978941138392199  0.7509420479672099
  0.1636297237732562  0.4998359673682057  0.2531194506373699
  0.5058015649032220  0.4969178183591090  0.2525098327152047
  0.3338581989481356  0.6683899119799126  0.0002973767468632
  0.5057145315778278  0.8278850857272790  0.2472716972950718
  0.1679762837867019  0.1697212056589416  0.7465944890240505
  0.3363164249773745  0.3321166834872670  0.0016742225369210
 
  0.00000000E+00  0.00000000E+00  0.00000000E+00
  0.00000000E+00  0.00000000E+00  0.00000000E+00
  0.00000000E+00  0.00000000E+00  0.00000000E+00
  0.00000000E+00  0.00000000E+00  0.00000000E+00
  0.00000000E+00  0.00000000E+00  0.00000000E+00
  0.00000000E+00  0.00000000E+00  0.00000000E+00
  0.00000000E+00  0.00000000E+00  0.00000000E+00
  0.00000000E+00  0.00000000E+00  0.00000000E+00
  0.00000000E+00  0.00000000E+00  0.00000000E+00
  0.00000000E+00  0.00000000E+00  0.00000000E+00
  0.00000000E+00  0.00000000E+00  0.00000000E+00
  0.00000000E+00  0.00000000E+00  0.00000000E+00
  0.00000000E+00  0.00000000E+00  0.00000000E+00
  0.00000000E+00  0.00000000E+00  0.00000000E+00
  0.00000000E+00  0.00000000E+00  0.00000000E+00
  0.00000000E+00  0.00000000E+00  0.00000000E+00
  0.00000000E+00  0.00000000E+00  0.00000000E+00
  0.00000000E+00  0.00000000E+00  0.00000000E+00
  0.00000000E+00  0.00000000E+00  0.00000000E+00
  0.00000000E+00  0.00000000E+00  0.00000000E+00
  0.00000000E+00  0.00000000E+00  0.00000000E+00
  0.00000000E+00  0.00000000E+00  0.00000000E+00
  0.00000000E+00  0.00000000E+00  0.00000000E+00
  0.00000000E+00  0.00000000E+00  0.00000000E+00
  0.00000000E+00  0.00000000E+00  0.00000000E+00
  0.00000000E+00  0.00000000E+00  0.00000000E+00
  0.00000000E+00  0.00000000E+00  0.00000000E+00
  0.00000000E+00  0.00000000E+00  0.00000000E+00
  0.00000000E+00  0.00000000E+00  0.00000000E+00
  0.00000000E+00  0.00000000E+00  0.00000000E+00
  0.00000000E+00  0.00000000E+00  0.00000000E+00
  0.00000000E+00  0.00000000E+00  0.00000000E+00
  0.00000000E+00  0.00000000E+00  0.00000000E+00
  0.00000000E+00  0.00000000E+00  0.00000000E+00
  0.00000000E+00  0.00000000E+00  0.00000000E+00
  0.00000000E+00  0.00000000E+00  0.00000000E+00
