title                                   
    1.000000000000000     
     9.7720294820085147   -0.0092344331469481    0.0014396075822641
    -0.0092314953458991    9.7596185948926291   -0.0037830067502073
     0.0009592470690246   -0.0025161871948765    6.4949610505904340
   Hf   Nb   Ta   V    W 
     3    15     3     4    11
Direct
  0.6680996241945177  0.3312408397406201  0.4950537285217831
  0.6674300029821544 -0.0021471497618315  0.0015005338692669
  0.1710965259578464  0.1633947907317027  0.2442295441580822
  0.6657015694139201  0.3325706650012830  0.0036218713724150
 -0.0053894377914108 -0.0038379224901893 -0.0076392658441771
  0.6679119789118488  0.6701240137193450  0.0054808731475618
  0.3345020903375522  0.6688788363577549  0.0014940731471229
  0.8334833704632632  0.5037148730370771  0.7490954712180719
  0.8425052935435505  0.1671379640747273  0.2490319473203944
  0.1641683443939039  0.4983548301999832  0.2491255650638813
 -0.0018369762253677  0.3370593913573672 -0.0066402212886543
 -0.0033121028001475  0.3355622621227657  0.5052767044156609
  0.6676212877678348 -0.0035165712907873  0.4988910300107601
  0.4990019601562313  0.5026138227650534  0.7540755961318238
  0.1667562466559075  0.8370847629367067  0.2516867527490793
  0.1682488920486057  0.8363439929817017  0.7508698092438935
  0.3351297570052067  0.3361083458033094  0.5009552053344039
  0.4911669239128201  0.1636849997069089  0.7522922470438823
 -0.0040028877661383  0.6677866822525995  0.0020244511416506
 -0.0048096666408324 -0.0023869632879594  0.5078394999122147
  0.3350888213374739  0.6673966474049632  0.4988781299945875
  0.8439652594458636  0.1663164357955130  0.7498631312718694
  0.8341661041108952  0.5117637855629398  0.2540613038312691
  0.8331567397778062  0.8208190849692391  0.2619553676108977
  0.3435321299059673 -0.0008734155909824 -0.0034298302927501
 -0.0039530678426742  0.6672227419798356  0.5000580251038726
  0.1693984707920590  0.1663869807992270  0.7514348013550983
  0.4999427823961921  0.5020202507325757  0.2466276396283141
  0.4982812203122941  0.8337011063584022  0.7462729461556772
  0.3343099903207610  0.3346994669687961 -0.0042979508948945
  0.1651433458060051  0.5008935195541878  0.7495623157595362
  0.8334763286996910  0.8281585558492568  0.7418214053880007
  0.4877169883118245  0.1635999660538527  0.2459886594572581
  0.6660555094430752  0.6677204397425308  0.4949323387298659
  0.4990937094711981  0.8332843524201951  0.2538081199500716
  0.3371528711903006 -0.0028823845586717  0.5041981802822094
 
  0.00000000E+00  0.00000000E+00  0.00000000E+00
  0.00000000E+00  0.00000000E+00  0.00000000E+00
  0.00000000E+00  0.00000000E+00  0.00000000E+00
  0.00000000E+00  0.00000000E+00  0.00000000E+00
  0.00000000E+00  0.00000000E+00  0.00000000E+00
  0.00000000E+00  0.00000000E+00  0.00000000E+00
  0.00000000E+00  0.00000000E+00  0.00000000E+00
  0.00000000E+00  0.00000000E+00  0.00000000E+00
  0.00000000E+00  0.00000000E+00  0.00000000E+00
  0.00000000E+00  0.00000000E+00  0.00000000E+00
  0.00000000E+00  0.00000000E+00  0.00000000E+00
  0.00000000E+00  0.00000000E+00  0.00000000E+00
  0.00000000E+00  0.00000000E+00  0.00000000E+00
  0.00000000E+00  0.00000000E+00  0.00000000E+00
  0.00000000E+00  0.00000000E+00  0.00000000E+00
  0.00000000E+00  0.00000000E+00  0.00000000E+00
  0.00000000E+00  0.00000000E+00  0.00000000E+00
  0.00000000E+00  0.00000000E+00  0.00000000E+00
  0.00000000E+00  0.00000000E+00  0.00000000E+00
  0.00000000E+00  0.00000000E+00  0.00000000E+00
  0.00000000E+00  0.00000000E+00  0.00000000E+00
  0.00000000E+00  0.00000000E+00  0.00000000E+00
  0.00000000E+00  0.00000000E+00  0.00000000E+00
  0.00000000E+00  0.00000000E+00  0.00000000E+00
  0.00000000E+00  0.00000000E+00  0.00000000E+00
  0.00000000E+00  0.00000000E+00  0.00000000E+00
  0.00000000E+00  0.00000000E+00  0.00000000E+00
  0.00000000E+00  0.00000000E+00  0.00000000E+00
  0.00000000E+00  0.00000000E+00  0.00000000E+00
  0.00000000E+00  0.00000000E+00  0.00000000E+00
  0.00000000E+00  0.00000000E+00  0.00000000E+00
  0.00000000E+00  0.00000000E+00  0.00000000E+00
  0.00000000E+00  0.00000000E+00  0.00000000E+00
  0.00000000E+00  0.00000000E+00  0.00000000E+00
  0.00000000E+00  0.00000000E+00  0.00000000E+00
  0.00000000E+00  0.00000000E+00  0.00000000E+00
