title                                   
    1.000000000000000     
     9.4622121065338014    0.0056509714258668    0.0065402098470866
     0.0056417709057102    9.4655074599015929   -0.0013776071303418
     0.0043594682438102   -0.0009203924523880    6.3110821126972798
   Cr   Mo   V    W    Zr
     4    15     3    11     3
Direct
  0.1682055532119701  0.1615097854906938  0.2446078159875951
 -0.0029652616088505  0.6712511066040309  0.0033997784662025
  0.4970819514481370  0.8294472462565176  0.2476453358984176
  0.3397916727016292  0.6716966464341854  0.0074412617130776
  0.3321850659312101  0.3319849690111028  0.0022403542031726
  0.3294642381742412 -0.0024884152458882  0.4996673135329729
  0.8323424722083014  0.8331223547465005  0.7527099873947272
  0.0025260270341620 -0.0006019375272988  0.4988260085435346
  0.1676015638245762  0.8342994651808675  0.7510728083196834
  0.1675253802110601  0.8315030774437112  0.2449239169242297
  0.4983243832284327  0.1651472933868164  0.7509511887877708
  0.8305964165258167  0.1621793768100144  0.7531895011038916
  0.8317218731221198  0.5033227296556326  0.2469396198234333
  0.3387530627364390  0.6714037314462972  0.4910299603906372
  0.6675142977319101  0.3367382129544605 -0.0006396815983387
  0.3334392080539694  0.3329537923821038  0.4985004683597038
  0.6678196944461524  0.3371594742578894  0.5024227427333811
  0.6669602022344187 -0.0049640876330188  0.5023201905878398
  0.8332833251241650  0.8334147176704072  0.2459724189255909
  0.4976960784544430  0.5030722135462208  0.2475852337613145
  0.6694727523352002 -0.0045047033109260 -0.0038476833224142
  0.1705032128707310  0.1618773877451789  0.7551002543304915
  0.6635856292961739  0.6686730968531626  0.4959627652094530
  0.6634851379804650  0.6697226911391860  0.0049772817633572
 -0.0002714053428157  0.3278915213939612  0.0053010457396326
  0.1717922477414980  0.5058411234653598  0.2437139168453245
  0.3301603100850420 -0.0044090162802662 -0.0001951179685117
 -0.0032971771767919  0.6707124827851934  0.4942851131476020
  0.4992774524674711  0.5023436049156378  0.7522645334892898
  0.8306267163014365  0.5047220961745968  0.7560407320979339
  0.0024968754956835 -0.0001439290595551  0.0000869321261836
  0.4986771294045899  0.8328104859731013  0.7523449963459817
  0.8306394385352295  0.1614095258971725  0.2460318621990723
  0.0022662751874700  0.3281402727977635  0.4989491625333111
  0.4998719145906340  0.1651623411512985  0.2501671714231842
  0.1708462854336794  0.5075992654878876  0.7580108101812709
 
  0.00000000E+00  0.00000000E+00  0.00000000E+00
  0.00000000E+00  0.00000000E+00  0.00000000E+00
  0.00000000E+00  0.00000000E+00  0.00000000E+00
  0.00000000E+00  0.00000000E+00  0.00000000E+00
  0.00000000E+00  0.00000000E+00  0.00000000E+00
  0.00000000E+00  0.00000000E+00  0.00000000E+00
  0.00000000E+00  0.00000000E+00  0.00000000E+00
  0.00000000E+00  0.00000000E+00  0.00000000E+00
  0.00000000E+00  0.00000000E+00  0.00000000E+00
  0.00000000E+00  0.00000000E+00  0.00000000E+00
  0.00000000E+00  0.00000000E+00  0.00000000E+00
  0.00000000E+00  0.00000000E+00  0.00000000E+00
  0.00000000E+00  0.00000000E+00  0.00000000E+00
  0.00000000E+00  0.00000000E+00  0.00000000E+00
  0.00000000E+00  0.00000000E+00  0.00000000E+00
  0.00000000E+00  0.00000000E+00  0.00000000E+00
  0.00000000E+00  0.00000000E+00  0.00000000E+00
  0.00000000E+00  0.00000000E+00  0.00000000E+00
  0.00000000E+00  0.00000000E+00  0.00000000E+00
  0.00000000E+00  0.00000000E+00  0.00000000E+00
  0.00000000E+00  0.00000000E+00  0.00000000E+00
  0.00000000E+00  0.00000000E+00  0.00000000E+00
  0.00000000E+00  0.00000000E+00  0.00000000E+00
  0.00000000E+00  0.00000000E+00  0.00000000E+00
  0.00000000E+00  0.00000000E+00  0.00000000E+00
  0.00000000E+00  0.00000000E+00  0.00000000E+00
  0.00000000E+00  0.00000000E+00  0.00000000E+00
  0.00000000E+00  0.00000000E+00  0.00000000E+00
  0.00000000E+00  0.00000000E+00  0.00000000E+00
  0.00000000E+00  0.00000000E+00  0.00000000E+00
  0.00000000E+00  0.00000000E+00  0.00000000E+00
  0.00000000E+00  0.00000000E+00  0.00000000E+00
  0.00000000E+00  0.00000000E+00  0.00000000E+00
  0.00000000E+00  0.00000000E+00  0.00000000E+00
  0.00000000E+00  0.00000000E+00  0.00000000E+00
  0.00000000E+00  0.00000000E+00  0.00000000E+00
