title                                   
    1.000000000000000     
     9.7330951899458196    0.0158948810560736   -0.0104484355382385
     0.0163368127172502    9.6114465380912453    0.0132380897777813
    -0.0069683919299930    0.0093931602783046    6.5665881480612098
   Hf   Nb   Ti   V    Zr
     3     4    15    11     3
Direct
  0.4878480640369836  0.4946436245036411  0.7647030503901237
  0.3468400892298792  0.3129853257076400  0.4733078262999371
  0.1615077535197521  0.5015262904994673  0.2364849276248600
  0.1612067619106486  0.8469738318054246  0.2533998412887433
  0.3223871948905782  0.6811273400280466  0.5029438832682566
  0.5002414176309040  0.8348459738442302  0.7323084291557035
 -0.0184011346922739  0.3388398914961280  0.0124695469463297
  0.5049816760343442  0.8250273000914722  0.2525712883104534
  0.6785006373129125  0.3360480175176493  0.5182383634198046
  0.3291613851276674 -0.0112884224722773 -0.0209456574549918
  0.6774202225220609  0.6425740825891194  0.0150975098696935
  0.8427503883473518  0.1504932837826880  0.2242310108958551
  0.8217370299532645  0.8151220324120555  0.7717066551102478
  0.8288253978844485  0.8291312537477393  0.2309359044293121
  0.0063960471362535  0.0053090594172876  0.5118795561485650
 -0.0222733891750172  0.3313083391722277  0.5002576068584875
 -0.0114218577100247  0.6715637051150281  0.5099753465777735
  0.4950905845270277  0.5143239480549612  0.2507388528580404
  0.0043440436920534 -0.0103555468396451 -0.0255002632007769
  0.1582427791300018  0.5081785115461783  0.7594390818880223
  0.6755149270118961  0.3404735032481007 -0.0023094508659111
  0.3207613746886384  0.6939657718957771 -0.0113538214745887
  0.8353757109625933  0.1720223637229032  0.7875183195156213
  0.3241265866388713 -0.0009755493979280  0.5053101682994634
  0.3428503218988805  0.3181944621141669  0.0344191820651606
  0.1613510479894224  0.1615221883711071  0.2419194820744169
  0.1696086220589328  0.8338012304127863  0.7307201292958860
  0.8342628791214763  0.5122965790404012  0.7446168005658075
  0.8386064915240693  0.5101856694603939  0.2640947622560106
  0.6680427864777823  0.0018338968001733 -0.0382503439938279
 -0.0007408243857897  0.6768979188838226 -0.0194898024947720
  0.5022008604079075  0.1690918524492560  0.7746849903583486
  0.6847221176232877  0.6510566523618847  0.4923232511943966
  0.6864501281205566  0.0134450086259960  0.5257059963534684
  0.1705685448236621  0.1898065269053056  0.7705298276633352
  0.5109133337289983  0.1380040830867890  0.2253177485027443
 
  0.00000000E+00  0.00000000E+00  0.00000000E+00
  0.00000000E+00  0.00000000E+00  0.00000000E+00
  0.00000000E+00  0.00000000E+00  0.00000000E+00
  0.00000000E+00  0.00000000E+00  0.00000000E+00
  0.00000000E+00  0.00000000E+00  0.00000000E+00
  0.00000000E+00  0.00000000E+00  0.00000000E+00
  0.00000000E+00  0.00000000E+00  0.00000000E+00
  0.00000000E+00  0.00000000E+00  0.00000000E+00
  0.00000000E+00  0.00000000E+00  0.00000000E+00
  0.00000000E+00  0.00000000E+00  0.00000000E+00
  0.00000000E+00  0.00000000E+00  0.00000000E+00
  0.00000000E+00  0.00000000E+00  0.00000000E+00
  0.00000000E+00  0.00000000E+00  0.00000000E+00
  0.00000000E+00  0.00000000E+00  0.00000000E+00
  0.00000000E+00  0.00000000E+00  0.00000000E+00
  0.00000000E+00  0.00000000E+00  0.00000000E+00
  0.00000000E+00  0.00000000E+00  0.00000000E+00
  0.00000000E+00  0.00000000E+00  0.00000000E+00
  0.00000000E+00  0.00000000E+00  0.00000000E+00
  0.00000000E+00  0.00000000E+00  0.00000000E+00
  0.00000000E+00  0.00000000E+00  0.00000000E+00
  0.00000000E+00  0.00000000E+00  0.00000000E+00
  0.00000000E+00  0.00000000E+00  0.00000000E+00
  0.00000000E+00  0.00000000E+00  0.00000000E+00
  0.00000000E+00  0.00000000E+00  0.00000000E+00
  0.00000000E+00  0.00000000E+00  0.00000000E+00
  0.00000000E+00  0.00000000E+00  0.00000000E+00
  0.00000000E+00  0.00000000E+00  0.00000000E+00
  0.00000000E+00  0.00000000E+00  0.00000000E+00
  0.00000000E+00  0.00000000E+00  0.00000000E+00
  0.00000000E+00  0.00000000E+00  0.00000000E+00
  0.00000000E+00  0.00000000E+00  0.00000000E+00
  0.00000000E+00  0.00000000E+00  0.00000000E+00
  0.00000000E+00  0.00000000E+00  0.00000000E+00
  0.00000000E+00  0.00000000E+00  0.00000000E+00
  0.00000000E+00  0.00000000E+00  0.00000000E+00
