title                                   
    1.000000000000000     
     9.9429563196153712   -0.0115194336434351    0.0233204670423189
    -0.0115318438061994    9.8490133659164396    0.0318489689724551
     0.0155331743191552    0.0212017946837824    6.5569226867934773
   Mo   Nb   W    Zr
     4    14    11     7
Direct
  0.3362104717618276  0.6721436815295828  0.0039889681161424
  0.8273659578192192  0.1670854553781008  0.7436928767312955
  0.5007542301396123  0.5055101043729084  0.2461021482844747
  0.1723492925684414  0.5010170867269659  0.7437846393336609
  0.6652965174633475  0.6687280795489073  0.4953562556481976
  0.3353520003184750  0.6704985039957772  0.4969389683723338
  0.8240126614017326  0.8327977650526200  0.7430302157809607
 -0.0034686614477736  0.3285804370886447  0.5030818397651328
  0.3238951973365510  0.3334321803913760  0.0016947928643863
  0.8257108202686488  0.5001909219186934  0.2529689842952241
  0.6758756486348962  0.3350629986317835  0.5001786089817055
  0.4993914341320707  0.8328316085667552  0.7551165406866129
  0.1774734207939233  0.8343188376706426  0.7440699248411989
 -0.0031253679058869  0.6694018357185437  0.4998888189514667
  0.1758002924172611  0.1624508363455441  0.7437268635172194
 -0.0007375472060352  0.0013587249995107  0.4945998154643804
  0.3246320061491987  0.3354558144694691  0.5006558546422477
  0.6734495753168442 -0.0037538352100489  0.0043632679363850
  0.4993466802958273  0.8351845222699211  0.2489155433701985
  0.3299979747518835 -0.0061974207271950  0.4953373219050770
  0.6786045941621175  0.3366914476022789  0.0047206206050109
  0.8225753828267092  0.5002722151348666  0.7488986236437375
  0.1745104456302983  0.1616585665626909  0.2555499994139963
  0.6669101514866135  0.6681437317912682  0.0078276348343616
  0.6739480956521859 -0.0042601836341693  0.4959485478124340
  0.1774464149394942  0.8349412797102147  0.2520324716414297
  0.8237331274842360  0.8332805844912646  0.2541539750207915
  0.3288003126026373 -0.0061384641347626  0.0075505104960090
  0.8262725344583385  0.1660133354063401  0.2553031582977208
  0.5006010140607878  0.1661359548117748  0.2517228028401491
  0.1717681005903540  0.5038893947583509  0.2497642570285075
 -0.0029802215378389  0.6691089731320833 -0.0066003530001598
  0.5013125064370300  0.1630375845794739  0.7538051988479548
  0.4998994250561476  0.5003749639068698  0.7573653988475988
 -0.0004499717015411  0.0015709559512091  0.0006601583601464
 -0.0025345171576334  0.3291815211917432 -0.0061952541779902
 
  0.00000000E+00  0.00000000E+00  0.00000000E+00
  0.00000000E+00  0.00000000E+00  0.00000000E+00
  0.00000000E+00  0.00000000E+00  0.00000000E+00
  0.00000000E+00  0.00000000E+00  0.00000000E+00
  0.00000000E+00  0.00000000E+00  0.00000000E+00
  0.00000000E+00  0.00000000E+00  0.00000000E+00
  0.00000000E+00  0.00000000E+00  0.00000000E+00
  0.00000000E+00  0.00000000E+00  0.00000000E+00
  0.00000000E+00  0.00000000E+00  0.00000000E+00
  0.00000000E+00  0.00000000E+00  0.00000000E+00
  0.00000000E+00  0.00000000E+00  0.00000000E+00
  0.00000000E+00  0.00000000E+00  0.00000000E+00
  0.00000000E+00  0.00000000E+00  0.00000000E+00
  0.00000000E+00  0.00000000E+00  0.00000000E+00
  0.00000000E+00  0.00000000E+00  0.00000000E+00
  0.00000000E+00  0.00000000E+00  0.00000000E+00
  0.00000000E+00  0.00000000E+00  0.00000000E+00
  0.00000000E+00  0.00000000E+00  0.00000000E+00
  0.00000000E+00  0.00000000E+00  0.00000000E+00
  0.00000000E+00  0.00000000E+00  0.00000000E+00
  0.00000000E+00  0.00000000E+00  0.00000000E+00
  0.00000000E+00  0.00000000E+00  0.00000000E+00
  0.00000000E+00  0.00000000E+00  0.00000000E+00
  0.00000000E+00  0.00000000E+00  0.00000000E+00
  0.00000000E+00  0.00000000E+00  0.00000000E+00
  0.00000000E+00  0.00000000E+00  0.00000000E+00
  0.00000000E+00  0.00000000E+00  0.00000000E+00
  0.00000000E+00  0.00000000E+00  0.00000000E+00
  0.00000000E+00  0.00000000E+00  0.00000000E+00
  0.00000000E+00  0.00000000E+00  0.00000000E+00
  0.00000000E+00  0.00000000E+00  0.00000000E+00
  0.00000000E+00  0.00000000E+00  0.00000000E+00
  0.00000000E+00  0.00000000E+00  0.00000000E+00
  0.00000000E+00  0.00000000E+00  0.00000000E+00
  0.00000000E+00  0.00000000E+00  0.00000000E+00
  0.00000000E+00  0.00000000E+00  0.00000000E+00
