title                                   
    1.000000000000000     
    10.0161604381024887    0.0396847322698611   -0.0434200954528170
     0.0388400431248000    9.7707144511367208   -0.0233799856748009
    -0.0290352871941109   -0.0156958793308873    6.5525672083248230
   Cr   Mo   Nb   Ti   Zr
     2    15     1     6    12
Direct
  0.3287586861363654 -0.0007539377146106  0.5018804017184739
  0.3316771927691956  0.6743123439678798 -0.0319310921733601
  0.3522365123767107  0.3280061736677225  0.0023123526939062
  0.8228526733478119  0.8369184342152705  0.7546742967159292
  0.6786680883271228  0.0024283647305313 -0.0020890648350173
  0.3475859840023468  0.3329372914578261  0.4937245571175339
  0.6708151154339831  0.6614110746321391  0.5044511719801335
  0.6724666439698787  0.6615977501690933 -0.0067653994980549
  0.8324223094116470  0.1576391534812121  0.2509833376779126
  0.4984983123904423  0.5015146895933296  0.7451263080114399
  0.6809253853931049  0.0038535849640462  0.4948028308028929
  0.1713303752481374  0.8386326089443487  0.7575734577443008
 -0.0027266162052531  0.0027385436875751 -0.0039526736416998
  0.4995608981249783  0.1693905194700646  0.2552201048855159
  0.8348072889858096  0.1577432740540096  0.7467986327027855
  0.8193267185150428  0.5031013381820530  0.2535687371305258
  0.6739241266960270  0.3320000561145449  0.4909603880016853
  0.8222762466171679  0.4993202215750578  0.7445072195501412
 -0.0119893387160774  0.0047192331044749  0.5107280807160570
  0.3256876822835468  0.6712869799147433  0.5324404793862852
  0.1718365211138923  0.1670109078733915  0.2644199483678242
 -0.0224389007447479  0.3249776461296632  0.0189885712573815
 -0.0235167019002372  0.3264287967274769  0.4820394492338212
  0.8187065936028463  0.8405746754559197  0.2461495214074025
  0.6726778320083127  0.3279177028981547 -0.0023597998814438
  0.1695653642882141  0.1724270868466670  0.7397663625501176
  0.3310926702130771  0.0017617308293863  0.0004121991319422
  0.5053059395029821  0.8307417478548955  0.7463116607262901
  0.4955340100509200  0.5068873425110946  0.2460216365050757
 -0.0071919918629600  0.6712471978554007  0.0004682943554338
  0.1748128561902089  0.8470313812726039  0.2607675311255087
 -0.0061450946144713  0.6722647644189514  0.5114382484247713
  0.1800774948051731  0.4888834706453052  0.7624434907301446
  0.5036929165764942  0.1625468158275788  0.7300285746568118
  0.1788925918865852  0.4877609961257263  0.2448965248530690
  0.5079936137757231  0.8327400385164730  0.2531936598684620
 
  0.00000000E+00  0.00000000E+00  0.00000000E+00
  0.00000000E+00  0.00000000E+00  0.00000000E+00
  0.00000000E+00  0.00000000E+00  0.00000000E+00
  0.00000000E+00  0.00000000E+00  0.00000000E+00
  0.00000000E+00  0.00000000E+00  0.00000000E+00
  0.00000000E+00  0.00000000E+00  0.00000000E+00
  0.00000000E+00  0.00000000E+00  0.00000000E+00
  0.00000000E+00  0.00000000E+00  0.00000000E+00
  0.00000000E+00  0.00000000E+00  0.00000000E+00
  0.00000000E+00  0.00000000E+00  0.00000000E+00
  0.00000000E+00  0.00000000E+00  0.00000000E+00
  0.00000000E+00  0.00000000E+00  0.00000000E+00
  0.00000000E+00  0.00000000E+00  0.00000000E+00
  0.00000000E+00  0.00000000E+00  0.00000000E+00
  0.00000000E+00  0.00000000E+00  0.00000000E+00
  0.00000000E+00  0.00000000E+00  0.00000000E+00
  0.00000000E+00  0.00000000E+00  0.00000000E+00
  0.00000000E+00  0.00000000E+00  0.00000000E+00
  0.00000000E+00  0.00000000E+00  0.00000000E+00
  0.00000000E+00  0.00000000E+00  0.00000000E+00
  0.00000000E+00  0.00000000E+00  0.00000000E+00
  0.00000000E+00  0.00000000E+00  0.00000000E+00
  0.00000000E+00  0.00000000E+00  0.00000000E+00
  0.00000000E+00  0.00000000E+00  0.00000000E+00
  0.00000000E+00  0.00000000E+00  0.00000000E+00
  0.00000000E+00  0.00000000E+00  0.00000000E+00
  0.00000000E+00  0.00000000E+00  0.00000000E+00
  0.00000000E+00  0.00000000E+00  0.00000000E+00
  0.00000000E+00  0.00000000E+00  0.00000000E+00
  0.00000000E+00  0.00000000E+00  0.00000000E+00
  0.00000000E+00  0.00000000E+00  0.00000000E+00
  0.00000000E+00  0.00000000E+00  0.00000000E+00
  0.00000000E+00  0.00000000E+00  0.00000000E+00
  0.00000000E+00  0.00000000E+00  0.00000000E+00
  0.00000000E+00  0.00000000E+00  0.00000000E+00
  0.00000000E+00  0.00000000E+00  0.00000000E+00
