title                                   
    1.000000000000000     
     9.4211999361757091   -0.1049035136840763   -0.0338446693587526
    -0.1053918107090338    9.5164556553708124   -0.0252168062640351
    -0.0224105898385573   -0.0165053997583366    6.3485328304129567
   Cr   V    W    Zr
     9     9     9     9
Direct
 -0.0031669508512280 -0.0001860734880672  0.4730337058648479
  0.3448282239657653  0.6749836171910772  0.4996108638842514
  0.8484707508608581  0.8446267709996444  0.2605290251196097
  0.1763035093780863  0.4902683380940489  0.7462898810121674
  0.5001346313833300  0.4930113413607272  0.7365832856819160
  0.4857765388170320  0.8306082454959748  0.2837882806087820
  0.3191463181554319 -0.0136818541209100 -0.0060782902330426
  0.1758075108713239  0.8483363270805552  0.2416313043632604
  0.3259988911977211 -0.0179628424016201  0.4988964150348981
  0.8401287467609339  0.4873058665504297  0.2551085414562035
  0.1536926178818888  0.1623327411061824  0.2455052265628002
  0.6612828503940130  0.6742415340503668  0.4950421388472121
  0.4840027314816792  0.8360581865473228  0.7194449706910028
  0.8288183103623263  0.1696760375942465  0.7520847725767377
  0.6661669252522456  0.3194860854196139 -0.0022623487966047
  0.0224434163401862  0.6730953254116702  0.0191232226620722
  0.3289651402165692  0.3515815998030188  0.5214405737118906
  0.1797380827135024  0.8508162273542099  0.7467139928897707
  0.8296233412559866  0.1661235923853838  0.2585206214024167
  0.0009007769060806  0.3356827804510035  0.4944238715912863
 -0.0014717928684202  0.3311392772934732  0.0055604987644694
  0.6654606452762475  0.3269929312478586  0.5146510766606254
  0.1723662812029432  0.4956832534683523  0.2470680511691917
  0.6597615313439795 -0.0045701156704417  0.5000385981508463
 -0.0000517428255783 -0.0006980913416998  0.0191838868068000
  0.3279785328465627  0.3418410211344438 -0.0158479627401397
  0.4908800608847212  0.1639709835502724  0.7483450474902225
  0.8505338560579435  0.8425934623463917  0.7385817532337567
  0.3363229474347508  0.6722532265078692 -0.0134727679339137
  0.0244695363837183  0.6744560004892474  0.4843580315702645
  0.5070187611600514  0.4965114173923697  0.2613904632942780
  0.6545776959764662 -0.0102317523605643  0.0058182510959637
  0.1621277263061043  0.1585719755111951  0.7371444700475354
  0.6709731253393921  0.6734018651429173  0.0131883040315447
  0.4737319869152952  0.1604762388742429  0.2569837777270290
  0.8362584852220921  0.5012044595291943  0.7575784657000483
 
  0.00000000E+00  0.00000000E+00  0.00000000E+00
  0.00000000E+00  0.00000000E+00  0.00000000E+00
  0.00000000E+00  0.00000000E+00  0.00000000E+00
  0.00000000E+00  0.00000000E+00  0.00000000E+00
  0.00000000E+00  0.00000000E+00  0.00000000E+00
  0.00000000E+00  0.00000000E+00  0.00000000E+00
  0.00000000E+00  0.00000000E+00  0.00000000E+00
  0.00000000E+00  0.00000000E+00  0.00000000E+00
  0.00000000E+00  0.00000000E+00  0.00000000E+00
  0.00000000E+00  0.00000000E+00  0.00000000E+00
  0.00000000E+00  0.00000000E+00  0.00000000E+00
  0.00000000E+00  0.00000000E+00  0.00000000E+00
  0.00000000E+00  0.00000000E+00  0.00000000E+00
  0.00000000E+00  0.00000000E+00  0.00000000E+00
  0.00000000E+00  0.00000000E+00  0.00000000E+00
  0.00000000E+00  0.00000000E+00  0.00000000E+00
  0.00000000E+00  0.00000000E+00  0.00000000E+00
  0.00000000E+00  0.00000000E+00  0.00000000E+00
  0.00000000E+00  0.00000000E+00  0.00000000E+00
  0.00000000E+00  0.00000000E+00  0.00000000E+00
  0.00000000E+00  0.00000000E+00  0.00000000E+00
  0.00000000E+00  0.00000000E+00  0.00000000E+00
  0.00000000E+00  0.00000000E+00  0.00000000E+00
  0.00000000E+00  0.00000000E+00  0.00000000E+00
  0.00000000E+00  0.00000000E+00  0.00000000E+00
  0.00000000E+00  0.00000000E+00  0.00000000E+00
  0.00000000E+00  0.00000000E+00  0.00000000E+00
  0.00000000E+00  0.00000000E+00  0.00000000E+00
  0.00000000E+00  0.00000000E+00  0.00000000E+00
  0.00000000E+00  0.00000000E+00  0.00000000E+00
  0.00000000E+00  0.00000000E+00  0.00000000E+00
  0.00000000E+00  0.00000000E+00  0.00000000E+00
  0.00000000E+00  0.00000000E+00  0.00000000E+00
  0.00000000E+00  0.00000000E+00  0.00000000E+00
  0.00000000E+00  0.00000000E+00  0.00000000E+00
  0.00000000E+00  0.00000000E+00  0.00000000E+00
