title                                   
    1.000000000000000     
     9.4861167056815621   -0.0114392574355495    0.0493006944371061
    -0.0113971540094051    9.4700406262202161    0.0049657282615186
     0.0329157007946666    0.0033943677239307    6.2730847540165557
   Cr   Mo   W    Zr
    11    14     4     7
Direct
  0.3163263276288340  0.6683774858418685  0.0051695907353419
  0.0030732933899299  0.6680905635398560 -0.0109639400586462
  0.3294900832846313  0.3286822967965451  0.0097540658128358
  0.1585545756283437  0.8323188735329767  0.7432391802545599
  0.6572266352225106 -0.0053480017264311  0.4896106787504839
  0.0141761077455868 -0.0170314601259684  0.5055522664067255
  0.8481319358990355  0.8250853959325855  0.7436842295987621
  0.0016250560111053  0.6746712337527286  0.5085625990087992
  0.3218410004706280  0.0027843514613729  0.5003762894352412
  0.1731452089769075  0.1534996736562808  0.7418163197150452
  0.1644144864742638  0.5170075789279305  0.7504914433204849
  0.3270994981852613  0.0017956627136641 -0.0005426812715028
  0.1635519445412273  0.8313561290214854  0.2529593043953481
  0.8425671595298986  0.8287282418560753  0.2607444840428479
  0.1691315297601239  0.5094720536444646  0.2463794633135732
  0.8399885905843740  0.5122812517038409  0.7505282650101801
  0.8399969156288521  0.5110227577233575  0.2497900311842602
  0.0115794389106379  0.3466458050091684  0.5006969537406998
  0.6770094470918677  0.6714425864553095  0.5004417417563719
  0.3255401910570759  0.3293078622592401  0.5059716763221420
  0.4929943403493098  0.8329124892877887  0.2535680522484536
  0.3182655506997960  0.6699660889251277  0.4961472654145600
  0.4912606602011307  0.5033337556517151  0.2468023846238474
  0.0117313609543831 -0.0153586047513987 -0.0104086856437792
  0.4880130520874237  0.1666679539148633  0.7512650929812030
  0.6628543620199621  0.3364029259541441  0.0052958046885218
  0.4910088801286981  0.1651197073646345  0.2535240751810439
  0.6766240508147022  0.6693092193768374  0.0068935268463537
  0.1736524327989198  0.1606021446898848  0.2584609374720191
  0.8446778346300112  0.1583664125224303  0.2561781131790963
  0.4844601227964222  0.5051603981130652  0.7604098256077132
  0.0153690653041632  0.3397603401311817 -0.0119647725631764
  0.8426743072156302  0.1541469800113818  0.7363424465716741
  0.6644998178116438  0.3373564114816409  0.5009094311211090
  0.4889872736175522  0.8333736669737293  0.7441567928064106
  0.6684574625491574 -0.0073102316233749 -0.0018422520086026
 
  0.00000000E+00  0.00000000E+00  0.00000000E+00
  0.00000000E+00  0.00000000E+00  0.00000000E+00
  0.00000000E+00  0.00000000E+00  0.00000000E+00
  0.00000000E+00  0.00000000E+00  0.00000000E+00
  0.00000000E+00  0.00000000E+00  0.00000000E+00
  0.00000000E+00  0.00000000E+00  0.00000000E+00
  0.00000000E+00  0.00000000E+00  0.00000000E+00
  0.00000000E+00  0.00000000E+00  0.00000000E+00
  0.00000000E+00  0.00000000E+00  0.00000000E+00
  0.00000000E+00  0.00000000E+00  0.00000000E+00
  0.00000000E+00  0.00000000E+00  0.00000000E+00
  0.00000000E+00  0.00000000E+00  0.00000000E+00
  0.00000000E+00  0.00000000E+00  0.00000000E+00
  0.00000000E+00  0.00000000E+00  0.00000000E+00
  0.00000000E+00  0.00000000E+00  0.00000000E+00
  0.00000000E+00  0.00000000E+00  0.00000000E+00
  0.00000000E+00  0.00000000E+00  0.00000000E+00
  0.00000000E+00  0.00000000E+00  0.00000000E+00
  0.00000000E+00  0.00000000E+00  0.00000000E+00
  0.00000000E+00  0.00000000E+00  0.00000000E+00
  0.00000000E+00  0.00000000E+00  0.00000000E+00
  0.00000000E+00  0.00000000E+00  0.00000000E+00
  0.00000000E+00  0.00000000E+00  0.00000000E+00
  0.00000000E+00  0.00000000E+00  0.00000000E+00
  0.00000000E+00  0.00000000E+00  0.00000000E+00
  0.00000000E+00  0.00000000E+00  0.00000000E+00
  0.00000000E+00  0.00000000E+00  0.00000000E+00
  0.00000000E+00  0.00000000E+00  0.00000000E+00
  0.00000000E+00  0.00000000E+00  0.00000000E+00
  0.00000000E+00  0.00000000E+00  0.00000000E+00
  0.00000000E+00  0.00000000E+00  0.00000000E+00
  0.00000000E+00  0.00000000E+00  0.00000000E+00
  0.00000000E+00  0.00000000E+00  0.00000000E+00
  0.00000000E+00  0.00000000E+00  0.00000000E+00
  0.00000000E+00  0.00000000E+00  0.00000000E+00
  0.00000000E+00  0.00000000E+00  0.00000000E+00
