title                                   
    1.000000000000000     
     9.7777272715614547   -0.0263880333666223   -0.0268159950029568
    -0.0263974086876802    9.7640802818493064   -0.0022984150309712
    -0.0178463986851630   -0.0015271339762705    6.4834679730867038
   Hf   Mo   Nb   Ta   Ti
     3    15    11     4     3
Direct
  0.1777376379343117  0.8399545914423091  0.7655658621568165
  0.0043621539740887  0.6725534559273869  0.4915297415179278
  0.8332068549000967  0.4981501317178496  0.7514583439236699
  0.0032478357622704  0.3308106872092032  0.4994315494100539
  0.6648727794100255  0.6711159390463842  0.4972921934437595
  0.0034837579222473  0.3285651307063770  0.0003184952018488
  0.1660656987995209  0.1693032838738045  0.2458105698988716
  0.4988500012803431  0.4974251972326605  0.2490700611808999
  0.1655736490976041  0.1679534959385359  0.7510025232551246
  0.3264488523473906  0.3295522275305796 -0.0071571492068168
  0.8282085745765798  0.8382604435837524  0.2516811933475556
  0.3399185906066766  0.0048292913885087 -0.0001192721436138
  0.6666246523895561 -0.0034057848579808  0.4975655832445352
  0.4973662894746009  0.1624309482833254  0.7481313650465797
  0.1671585863221906  0.4934313070334557  0.7540241927930672
  0.5060732082137726  0.8357793707211982  0.2514304614309140
  0.5036509868212081  0.8355852724150296  0.7504842155797505
  0.6664447229284154 -0.0029501179973400 -0.0017390709096214
  0.1798300884332466  0.8399469576355062  0.2425881483574057
  0.6541618415476926  0.3300717068733148 -0.0015136537859453
  0.1642675368885536  0.4914849329019314  0.2456224128182005
  0.6554729028642776  0.3305475089933805  0.4964794522055196
  0.8281654652855379  0.1688263217652072  0.2481515888116254
  0.3409977202101996  0.6604156325831071  0.0043596446127580
  0.8275474266743179  0.8412773084283985  0.7520342913703478
  0.3397082552458874  0.0019669001225467  0.4990174370133539
  0.3281466112066631  0.3293240030524804  0.4994022760335627
  0.5000224487839184  0.4982035751584908  0.7492691264568797
  0.6642969732728264  0.6726970870733822  0.0069318547868649
  0.0004060481612814  0.0045012813008139  0.4931056655441166
  0.8311451385257955  0.4944537244014432  0.2526221656557725
  0.3395468585400314  0.6609041323877055  0.4991126465885536
  0.8310284894975618  0.1693868941482923  0.7483344205803284
  0.4966891859963367  0.1570790846597031  0.2392818843050519
 -0.0004728931668039  0.6730504643391521  0.0198784552536251
 -0.0002549307282228  0.0065176129801050  0.0095413242206556
 
  0.00000000E+00  0.00000000E+00  0.00000000E+00
  0.00000000E+00  0.00000000E+00  0.00000000E+00
  0.00000000E+00  0.00000000E+00  0.00000000E+00
  0.00000000E+00  0.00000000E+00  0.00000000E+00
  0.00000000E+00  0.00000000E+00  0.00000000E+00
  0.00000000E+00  0.00000000E+00  0.00000000E+00
  0.00000000E+00  0.00000000E+00  0.00000000E+00
  0.00000000E+00  0.00000000E+00  0.00000000E+00
  0.00000000E+00  0.00000000E+00  0.00000000E+00
  0.00000000E+00  0.00000000E+00  0.00000000E+00
  0.00000000E+00  0.00000000E+00  0.00000000E+00
  0.00000000E+00  0.00000000E+00  0.00000000E+00
  0.00000000E+00  0.00000000E+00  0.00000000E+00
  0.00000000E+00  0.00000000E+00  0.00000000E+00
  0.00000000E+00  0.00000000E+00  0.00000000E+00
  0.00000000E+00  0.00000000E+00  0.00000000E+00
  0.00000000E+00  0.00000000E+00  0.00000000E+00
  0.00000000E+00  0.00000000E+00  0.00000000E+00
  0.00000000E+00  0.00000000E+00  0.00000000E+00
  0.00000000E+00  0.00000000E+00  0.00000000E+00
  0.00000000E+00  0.00000000E+00  0.00000000E+00
  0.00000000E+00  0.00000000E+00  0.00000000E+00
  0.00000000E+00  0.00000000E+00  0.00000000E+00
  0.00000000E+00  0.00000000E+00  0.00000000E+00
  0.00000000E+00  0.00000000E+00  0.00000000E+00
  0.00000000E+00  0.00000000E+00  0.00000000E+00
  0.00000000E+00  0.00000000E+00  0.00000000E+00
  0.00000000E+00  0.00000000E+00  0.00000000E+00
  0.00000000E+00  0.00000000E+00  0.00000000E+00
  0.00000000E+00  0.00000000E+00  0.00000000E+00
  0.00000000E+00  0.00000000E+00  0.00000000E+00
  0.00000000E+00  0.00000000E+00  0.00000000E+00
  0.00000000E+00  0.00000000E+00  0.00000000E+00
  0.00000000E+00  0.00000000E+00  0.00000000E+00
  0.00000000E+00  0.00000000E+00  0.00000000E+00
  0.00000000E+00  0.00000000E+00  0.00000000E+00
