title                                   
    1.000000000000000     
     9.6958196548478401   -0.0325618566805333   -0.0224103336939047
    -0.0325031226438617    9.7034314078209167   -0.0080143483968609
    -0.0149716063467564   -0.0052867131382740    6.4466105955333610
   Mo   Ta   Ti   W    Zr
    15     3    11     3     4
Direct
  0.0013500238970004  0.6666302714189368 -0.0045507085593533
  0.6613751544443166  0.3356820625582276  0.0029118117394298
  0.6616825376999926  0.6717342327935595  0.0033677537750718
 -0.0017206556184311  0.0068525880072823  0.5048914021037982
  0.1704765575591886  0.1608618269348555  0.2525232588642932
  0.8366366960355458  0.1702783639040656  0.7503936954637540
  0.5048158705355392  0.5021934127150216  0.7570417921894838
  0.5006553225843029  0.8305784843213464  0.2454418434513970
  0.3326201133525969 -0.0012881888890178 -0.0031862565433532
  0.0004677558694679  0.6653767090846368  0.5045495934754686
  0.6602679067176765  0.6692779344866824  0.5011874836712313
  0.1608939562589183  0.5033527914360931  0.7437351491246509
  0.8376008508531934  0.8274259936638144  0.7504101515772523
  0.5035895258546071  0.4985674556491449  0.2470666303746132
  0.0056691727629245  0.3355979519302320  0.5041168908434733
  0.3309064330426287  0.3368111084022367  0.4982073288387313
  0.8403780893224994  0.8269814288390639  0.2513766976704350
  0.3269786235473494  0.3380186565774548  0.0000207863815145
  0.4940090159576608  0.8322645362336170  0.7555656304236917
  0.1680313033934945  0.8367618863728344  0.7434398697300464
  0.3389192948065833  0.6511743969419255  0.4961599494866201
 -0.0077215227205272  0.0080616451384806 -0.0126256336875040
  0.8379860496603483  0.1748170096411905  0.2551278427513581
  0.3406000160271292  0.6512313355925260  0.0024579614347589
  0.6805524285427379 -0.0035504698746096 -0.0064153212482714
  0.4876177897581634  0.1570481566760673  0.7691986468026124
  0.4921976338491358  0.1602874979114483  0.2298903599117279
  0.8322845382278785  0.5147896357321821  0.7540158309166750
  0.8337371045564401  0.5129193302070003  0.2548122990943735
  0.3356793996144373 -0.0001373354330123  0.4969051650511838
  0.1719149581903230  0.1578124362433291  0.7402364411403296
  0.1608495757320549  0.5032088411682594  0.2539729802756564
  0.0026838731112092  0.3314236761584592 -0.0026875001551484
  0.6676601371569045 -0.0008003681426024  0.5061427777500134
  0.6629358786406369  0.3353979485565690  0.5072330412246217
  0.1654185907760710  0.8323567570426993  0.2470643546553642
 
  0.00000000E+00  0.00000000E+00  0.00000000E+00
  0.00000000E+00  0.00000000E+00  0.00000000E+00
  0.00000000E+00  0.00000000E+00  0.00000000E+00
  0.00000000E+00  0.00000000E+00  0.00000000E+00
  0.00000000E+00  0.00000000E+00  0.00000000E+00
  0.00000000E+00  0.00000000E+00  0.00000000E+00
  0.00000000E+00  0.00000000E+00  0.00000000E+00
  0.00000000E+00  0.00000000E+00  0.00000000E+00
  0.00000000E+00  0.00000000E+00  0.00000000E+00
  0.00000000E+00  0.00000000E+00  0.00000000E+00
  0.00000000E+00  0.00000000E+00  0.00000000E+00
  0.00000000E+00  0.00000000E+00  0.00000000E+00
  0.00000000E+00  0.00000000E+00  0.00000000E+00
  0.00000000E+00  0.00000000E+00  0.00000000E+00
  0.00000000E+00  0.00000000E+00  0.00000000E+00
  0.00000000E+00  0.00000000E+00  0.00000000E+00
  0.00000000E+00  0.00000000E+00  0.00000000E+00
  0.00000000E+00  0.00000000E+00  0.00000000E+00
  0.00000000E+00  0.00000000E+00  0.00000000E+00
  0.00000000E+00  0.00000000E+00  0.00000000E+00
  0.00000000E+00  0.00000000E+00  0.00000000E+00
  0.00000000E+00  0.00000000E+00  0.00000000E+00
  0.00000000E+00  0.00000000E+00  0.00000000E+00
  0.00000000E+00  0.00000000E+00  0.00000000E+00
  0.00000000E+00  0.00000000E+00  0.00000000E+00
  0.00000000E+00  0.00000000E+00  0.00000000E+00
  0.00000000E+00  0.00000000E+00  0.00000000E+00
  0.00000000E+00  0.00000000E+00  0.00000000E+00
  0.00000000E+00  0.00000000E+00  0.00000000E+00
  0.00000000E+00  0.00000000E+00  0.00000000E+00
  0.00000000E+00  0.00000000E+00  0.00000000E+00
  0.00000000E+00  0.00000000E+00  0.00000000E+00
  0.00000000E+00  0.00000000E+00  0.00000000E+00
  0.00000000E+00  0.00000000E+00  0.00000000E+00
  0.00000000E+00  0.00000000E+00  0.00000000E+00
  0.00000000E+00  0.00000000E+00  0.00000000E+00
