title                                   
    1.000000000000000     
     9.9757275965649921    0.0156257885372467   -0.0043537310407268
     0.0157052711296839    9.9815724856067547    0.0152452222659669
    -0.0029013274944699    0.0101517882445476    6.6375361479379604
   Nb   Ta   Ti   W    Zr
     8     7     7     7     7
Direct
  0.6730039307302602  0.3420886127514262  0.0061795691857302
 -0.0125224821863997  0.6601021606077447  0.0057803177669676
  0.8150283263714947  0.5040876683041161  0.7510969881986486
  0.1656093984420953  0.1497414510714285  0.7562801586692472
  0.1708573183528787  0.5131921484397715  0.2531665573821883
  0.4966268363699396  0.8344981374991703  0.7504708415426430
  0.3338126319955309 -0.0095694584314184  0.5141630489753134
  0.6705669952517500  0.3421426505420730  0.4906919386898411
  0.3357850284272069  0.3495411836000006  0.0200275261446824
  0.6726835337743309 -0.0093073636231763  0.0037552489004104
  0.4938803845693586  0.8367855526907102  0.2518119603915235
  0.3465070060946746  0.6662962322202380  0.0023709817908192
  0.8419274023812489  0.8362134144547152  0.2436359643716693
  0.1625287343650151  0.8334997109729334  0.7519371459861774
  0.5026335213039209  0.5024422341454455  0.7463896004855691
  0.6685962362469794  0.6669689850500192  0.4866242561858470
  0.8376208458253341  0.1492459818812604  0.7518022935560335
 -0.0234592919015555  0.6573394447329636  0.4931138159859897
  0.8473821261034782  0.8425388611814142  0.7544150160133779
  0.3406465486921280  0.3515807655857361  0.4772346398495679
  0.6771994143580028 -0.0072063082193641  0.4932706101287796
  0.6619600812969285  0.6683840749007868  0.0108252317621190
 -0.0087509785700507 -0.0002344294670994  0.5037861793495426
  0.5017553060334624  0.5068272288798357  0.2519733746760178
  0.8335882294800753  0.1551884697587556  0.2462327103679198
  0.3476481520956898  0.6644738684229266  0.4977591655669782
  0.3345002645614173 -0.0099489505173296 -0.0081669267223206
 -0.0043485936145628  0.0003151606118125 -0.0033547359137305
  0.8235079753124236  0.5039724598088463  0.2467530572619022
  0.4998087527572627  0.1716380038162991  0.7527338990472068
 -0.0094895247680746  0.3333917538209015  0.4950231680913631
 -0.0061666108585402  0.3316040875120687  0.0035256060243545
  0.1730028396977052  0.5118207279116652  0.7427526673752408
  0.1701135121212658  0.1550269116003499  0.2518682928661642
  0.1638580067479322  0.8309181043663535  0.2548684900606226
  0.5020981421393934  0.1644004631166182  0.2492013399855935
 
  0.00000000E+00  0.00000000E+00  0.00000000E+00
  0.00000000E+00  0.00000000E+00  0.00000000E+00
  0.00000000E+00  0.00000000E+00  0.00000000E+00
  0.00000000E+00  0.00000000E+00  0.00000000E+00
  0.00000000E+00  0.00000000E+00  0.00000000E+00
  0.00000000E+00  0.00000000E+00  0.00000000E+00
  0.00000000E+00  0.00000000E+00  0.00000000E+00
  0.00000000E+00  0.00000000E+00  0.00000000E+00
  0.00000000E+00  0.00000000E+00  0.00000000E+00
  0.00000000E+00  0.00000000E+00  0.00000000E+00
  0.00000000E+00  0.00000000E+00  0.00000000E+00
  0.00000000E+00  0.00000000E+00  0.00000000E+00
  0.00000000E+00  0.00000000E+00  0.00000000E+00
  0.00000000E+00  0.00000000E+00  0.00000000E+00
  0.00000000E+00  0.00000000E+00  0.00000000E+00
  0.00000000E+00  0.00000000E+00  0.00000000E+00
  0.00000000E+00  0.00000000E+00  0.00000000E+00
  0.00000000E+00  0.00000000E+00  0.00000000E+00
  0.00000000E+00  0.00000000E+00  0.00000000E+00
  0.00000000E+00  0.00000000E+00  0.00000000E+00
  0.00000000E+00  0.00000000E+00  0.00000000E+00
  0.00000000E+00  0.00000000E+00  0.00000000E+00
  0.00000000E+00  0.00000000E+00  0.00000000E+00
  0.00000000E+00  0.00000000E+00  0.00000000E+00
  0.00000000E+00  0.00000000E+00  0.00000000E+00
  0.00000000E+00  0.00000000E+00  0.00000000E+00
  0.00000000E+00  0.00000000E+00  0.00000000E+00
  0.00000000E+00  0.00000000E+00  0.00000000E+00
  0.00000000E+00  0.00000000E+00  0.00000000E+00
  0.00000000E+00  0.00000000E+00  0.00000000E+00
  0.00000000E+00  0.00000000E+00  0.00000000E+00
  0.00000000E+00  0.00000000E+00  0.00000000E+00
  0.00000000E+00  0.00000000E+00  0.00000000E+00
  0.00000000E+00  0.00000000E+00  0.00000000E+00
  0.00000000E+00  0.00000000E+00  0.00000000E+00
  0.00000000E+00  0.00000000E+00  0.00000000E+00
