title                                   
    1.000000000000000     
     9.5270885787335597    0.0043054272576955    0.0011600097287844
     0.0043015642757888    9.5299734103246383   -0.0010840690138884
     0.0007723873849856   -0.0007241436537036    6.3589869042613012
   Cr   Mo   Nb   Ti   W 
     4    15    11     3     3
Direct
 -0.0034196378584349 -0.0005058720451099 -0.0015432206174373
  0.6681405168689716  0.6660424474982799 -0.0004738148731377
  0.1671770111903264  0.8385629381900247  0.2549207747838056
  0.3320521663610902 -0.0043394887625209  0.4985188267872044
  0.0013510395925569 -0.0025119834681226  0.4959994469896581
  0.6665183300070791  0.0004507945280474  0.5018260494545215
  0.8349729042465409  0.1631450787286903  0.2451626571001788
 -0.0017659803731912  0.6704449044858102  0.0013132090214541
  0.6695185143366872  0.0004160048983526 -0.0042305308664559
  0.4986450349009272  0.1618221289494373  0.7508161116079637
  0.3313919897536330 -0.0033440224676251 -0.0001997484264354
  0.8363134184395566  0.8360093226671523  0.7534553751382793
  0.3334268885521093  0.6724058874999020  0.4992669181760171
  0.6680224600663514  0.3329420422260448 -0.0002873589540398
  0.8344190641078328  0.1622995246257995  0.7538030623339941
  0.3347977449108010  0.3319285520696078  0.0007216941736093
  0.0005031274065877  0.6705492931111252  0.4973125588587444
  0.8326859951821437  0.5033437537920866  0.7570964040402629
  0.8327077034111495  0.5041174604707148  0.2447728085507404
  0.6683179266900274  0.3321592207502346  0.5009315269781826
 -0.0046376344128579  0.3327089658715503  0.4991590490798855
  0.1658475842949562  0.1574933395237874  0.7513681018628781
  0.6698805739221445  0.6674792822568543  0.5026788752698224
  0.3361741495332758  0.3292648814257922  0.5007727156575574
  0.3327757668993009  0.6714310170640615  0.0056165646249160
  0.5022798850143598  0.5026035572129002  0.7571586758976743
  0.8378916087609218  0.8355192258066452  0.2438409154940609
  0.1646933827107852  0.5040708747503507  0.7520525263285052
  0.1658562875692940  0.5012752211438029  0.2499591514677867
  0.4995425533848116  0.8374841865500495  0.2510035767257196
  0.4966838974056481  0.1614016901938228  0.2460449010202868
  0.1650490123072673  0.8387906625560155  0.7483214156533451
  0.1674299007429183  0.1559006196863854  0.2454614745448446
 -0.0051519509012621  0.3310784072131061  0.0006516838957274
  0.5021110726985264  0.5003336045212160  0.2473687192941464
  0.4977976922771647  0.8372264764757281  0.7493589029257327
 
  0.00000000E+00  0.00000000E+00  0.00000000E+00
  0.00000000E+00  0.00000000E+00  0.00000000E+00
  0.00000000E+00  0.00000000E+00  0.00000000E+00
  0.00000000E+00  0.00000000E+00  0.00000000E+00
  0.00000000E+00  0.00000000E+00  0.00000000E+00
  0.00000000E+00  0.00000000E+00  0.00000000E+00
  0.00000000E+00  0.00000000E+00  0.00000000E+00
  0.00000000E+00  0.00000000E+00  0.00000000E+00
  0.00000000E+00  0.00000000E+00  0.00000000E+00
  0.00000000E+00  0.00000000E+00  0.00000000E+00
  0.00000000E+00  0.00000000E+00  0.00000000E+00
  0.00000000E+00  0.00000000E+00  0.00000000E+00
  0.00000000E+00  0.00000000E+00  0.00000000E+00
  0.00000000E+00  0.00000000E+00  0.00000000E+00
  0.00000000E+00  0.00000000E+00  0.00000000E+00
  0.00000000E+00  0.00000000E+00  0.00000000E+00
  0.00000000E+00  0.00000000E+00  0.00000000E+00
  0.00000000E+00  0.00000000E+00  0.00000000E+00
  0.00000000E+00  0.00000000E+00  0.00000000E+00
  0.00000000E+00  0.00000000E+00  0.00000000E+00
  0.00000000E+00  0.00000000E+00  0.00000000E+00
  0.00000000E+00  0.00000000E+00  0.00000000E+00
  0.00000000E+00  0.00000000E+00  0.00000000E+00
  0.00000000E+00  0.00000000E+00  0.00000000E+00
  0.00000000E+00  0.00000000E+00  0.00000000E+00
  0.00000000E+00  0.00000000E+00  0.00000000E+00
  0.00000000E+00  0.00000000E+00  0.00000000E+00
  0.00000000E+00  0.00000000E+00  0.00000000E+00
  0.00000000E+00  0.00000000E+00  0.00000000E+00
  0.00000000E+00  0.00000000E+00  0.00000000E+00
  0.00000000E+00  0.00000000E+00  0.00000000E+00
  0.00000000E+00  0.00000000E+00  0.00000000E+00
  0.00000000E+00  0.00000000E+00  0.00000000E+00
  0.00000000E+00  0.00000000E+00  0.00000000E+00
  0.00000000E+00  0.00000000E+00  0.00000000E+00
  0.00000000E+00  0.00000000E+00  0.00000000E+00
