title                                   
    1.000000000000000     
     9.9848086054286291    0.0460764282798283    0.0130141213388208
     0.0466160910302233    9.8027681723032654    0.2332070841579596
     0.0087205624345527    0.1571294143248559    6.4494121055333054
   Cr   Hf   V    Zr
     9     9     9     9
Direct
  0.3365394155684961  0.0126557971173990  0.4833195075804028
 -0.0620078732645332  0.3037340817648192 -0.0226535597427760
  0.7902943455653463  0.1889941870347787  0.7686283447281891
  0.3676773228256038  0.3421619437531673  0.0096988533752321
  0.2084422875827342  0.1318363916795178  0.7320899514836166
  0.0185783344417034  0.6588756115703406  0.0302116898061869
  0.6753324807273803  0.3138748047128672  0.4986537006276017
  0.6541954482034732  0.3227069640502137  0.0094260366593948
  0.3474991146404562  0.6579324872200920  0.0087905994286968
  0.6397945124355315  0.6952485137752821  0.0333595493608483
  0.8310515736671141  0.4907048026802201  0.2400108504956354
  0.8006577453023491  0.4926696801125864  0.7485654364342049
  0.0054560255290083  0.0163623151498352  0.4867917237244357
  0.1910886656895164  0.8306249653405987  0.2391992248735935
 -0.0085974345075691  0.3053767366274918  0.5327226170114617
  0.1787015884423253  0.8272178942153060  0.7549805873113536
  0.4810529794271218  0.8388912577763625  0.7357213469077120
  0.6795597951248195  0.0094386608993800  0.4853392383156528
  0.3570507737768600  0.0084644965685750  0.0001214064966713
  0.6419145101697037  0.6804521534473283  0.4898594278363670
  0.1889633816672091  0.5201245032620344  0.2197546607995345
  0.5067455952925463  0.1771561397426352  0.2288001400699081
  0.8092710031430430  0.1915373013995623  0.2195542888475432
  0.3348021749546723  0.6491426787132083  0.5102375568669753
  0.4835033423494886  0.8561833600361569  0.2712723056684643
  0.4838889805899967  0.5076141328054936  0.7798987379412410
  0.6608241615870607  0.0116357153709351  0.0119685143953574
 -0.0061192309383838  0.0309817862479931 -0.0517396147276106
  0.0372954482555340  0.6276099333407595  0.5010763919473372
  0.5072371031217582  0.4910085487638656  0.2768489579238412
  0.1867520399421248  0.1860050545005805  0.1879720028284977
  0.3106996825538716  0.3405304976408949  0.5014938043482451
  0.4990394552315691  0.1776899839181428  0.7454256626844911
  0.1635106689124216  0.4701510938675547  0.8269656294386404
  0.8432216088660504  0.8121355348046797  0.7572459845063092
  0.8560829731235966  0.8222699900893442  0.2483884437467440
 
  0.00000000E+00  0.00000000E+00  0.00000000E+00
  0.00000000E+00  0.00000000E+00  0.00000000E+00
  0.00000000E+00  0.00000000E+00  0.00000000E+00
  0.00000000E+00  0.00000000E+00  0.00000000E+00
  0.00000000E+00  0.00000000E+00  0.00000000E+00
  0.00000000E+00  0.00000000E+00  0.00000000E+00
  0.00000000E+00  0.00000000E+00  0.00000000E+00
  0.00000000E+00  0.00000000E+00  0.00000000E+00
  0.00000000E+00  0.00000000E+00  0.00000000E+00
  0.00000000E+00  0.00000000E+00  0.00000000E+00
  0.00000000E+00  0.00000000E+00  0.00000000E+00
  0.00000000E+00  0.00000000E+00  0.00000000E+00
  0.00000000E+00  0.00000000E+00  0.00000000E+00
  0.00000000E+00  0.00000000E+00  0.00000000E+00
  0.00000000E+00  0.00000000E+00  0.00000000E+00
  0.00000000E+00  0.00000000E+00  0.00000000E+00
  0.00000000E+00  0.00000000E+00  0.00000000E+00
  0.00000000E+00  0.00000000E+00  0.00000000E+00
  0.00000000E+00  0.00000000E+00  0.00000000E+00
  0.00000000E+00  0.00000000E+00  0.00000000E+00
  0.00000000E+00  0.00000000E+00  0.00000000E+00
  0.00000000E+00  0.00000000E+00  0.00000000E+00
  0.00000000E+00  0.00000000E+00  0.00000000E+00
  0.00000000E+00  0.00000000E+00  0.00000000E+00
  0.00000000E+00  0.00000000E+00  0.00000000E+00
  0.00000000E+00  0.00000000E+00  0.00000000E+00
  0.00000000E+00  0.00000000E+00  0.00000000E+00
  0.00000000E+00  0.00000000E+00  0.00000000E+00
  0.00000000E+00  0.00000000E+00  0.00000000E+00
  0.00000000E+00  0.00000000E+00  0.00000000E+00
  0.00000000E+00  0.00000000E+00  0.00000000E+00
  0.00000000E+00  0.00000000E+00  0.00000000E+00
  0.00000000E+00  0.00000000E+00  0.00000000E+00
  0.00000000E+00  0.00000000E+00  0.00000000E+00
  0.00000000E+00  0.00000000E+00  0.00000000E+00
  0.00000000E+00  0.00000000E+00  0.00000000E+00
