title                                   
    1.000000000000000     
    10.1886365372491063    0.0232497928521397    0.0852162438021228
     0.0232883150690671   10.2113514972288808    0.0834532783888279
     0.0578777495136072    0.0559477511167062    6.9927631713895675
   Hf   Nb   Ti   Zr
     9     9     9     9
Direct
  0.5002041604457768  0.4987277894563272  0.2754363329497053
  0.3417984616013002  0.6916585534286510  0.5071423077368826
  0.8261776363970192  0.8393534149518567  0.2399673082423618
  0.3384588981213033 -0.0040328059579331  0.4841603458895884
  0.1542461704532036  0.1363370507161287  0.2098553036360055
  0.1645930885446149  0.8331641471389543  0.2255892228073391
 -0.0034207631120142 -0.0064070268040026  0.5126503496737235
  0.1765605318539927  0.1645539124603799  0.7567255977760420
 -0.0046379683921796  0.3357111965525925  0.0012269054641379
  0.8263975466419173  0.8393317249893431  0.7721655851724656
  0.6546801239787777  0.6740781445642743 -0.0075178046029889
  0.8281872967164794  0.1627915532603992  0.7421766277881555
  0.6697816722883077  0.0016088659044555  0.5179926192859335
  0.4990176882026112  0.8468606097526206  0.7690706577833236
 -0.0309009254927458  0.0118036992476913 -0.0277144410161751
  0.5157605644291732  0.8397989476455489  0.2405608009051271
  0.8217606898219514  0.5027465411978304  0.7645523844835601
  0.3686185238445659  0.0057645807092838  0.0095304418356277
  0.3236145165813070  0.3048528822417161  0.4533122652682993
  0.3531804070313501  0.6617124222147243 -0.0043490580321697
  0.1844285330997102  0.5150290800225057  0.2702854212874126
  0.4914463382122650  0.4862404497869494  0.7283454331893082
  0.4923592762279624  0.1754783741840425  0.7185940380024712
  0.6826042233969596  0.3291688373360059  0.5332731262891240
  0.5268969980089858  0.1656952970313035  0.2786015817796382
  0.6614553648106842  0.0087441638204274 -0.0095985014596599
  0.8209106325189134  0.1578264345491522  0.2556978906648701
  0.3338113684476761  0.3364801939310966  0.0226894775714674
 -0.0000122147546195  0.6474885332288757 -0.0113153479379217
 -0.0051924821711959  0.3324266547125864  0.4867514740141338
  0.8081380444416385  0.4996517502621576  0.2493393523627194
  0.1741016161869049  0.8503385570197816  0.7910429338634849
  0.6565649058235511  0.3247659715290405 -0.0182598677978189
 -0.0030803790837942  0.6698882495020151  0.5163552583956098
  0.6610683010602246  0.6757928463651182  0.5273757674364314
  0.1904211538174249  0.4845684030481028  0.7182882092917856
 
  0.00000000E+00  0.00000000E+00  0.00000000E+00
  0.00000000E+00  0.00000000E+00  0.00000000E+00
  0.00000000E+00  0.00000000E+00  0.00000000E+00
  0.00000000E+00  0.00000000E+00  0.00000000E+00
  0.00000000E+00  0.00000000E+00  0.00000000E+00
  0.00000000E+00  0.00000000E+00  0.00000000E+00
  0.00000000E+00  0.00000000E+00  0.00000000E+00
  0.00000000E+00  0.00000000E+00  0.00000000E+00
  0.00000000E+00  0.00000000E+00  0.00000000E+00
  0.00000000E+00  0.00000000E+00  0.00000000E+00
  0.00000000E+00  0.00000000E+00  0.00000000E+00
  0.00000000E+00  0.00000000E+00  0.00000000E+00
  0.00000000E+00  0.00000000E+00  0.00000000E+00
  0.00000000E+00  0.00000000E+00  0.00000000E+00
  0.00000000E+00  0.00000000E+00  0.00000000E+00
  0.00000000E+00  0.00000000E+00  0.00000000E+00
  0.00000000E+00  0.00000000E+00  0.00000000E+00
  0.00000000E+00  0.00000000E+00  0.00000000E+00
  0.00000000E+00  0.00000000E+00  0.00000000E+00
  0.00000000E+00  0.00000000E+00  0.00000000E+00
  0.00000000E+00  0.00000000E+00  0.00000000E+00
  0.00000000E+00  0.00000000E+00  0.00000000E+00
  0.00000000E+00  0.00000000E+00  0.00000000E+00
  0.00000000E+00  0.00000000E+00  0.00000000E+00
  0.00000000E+00  0.00000000E+00  0.00000000E+00
  0.00000000E+00  0.00000000E+00  0.00000000E+00
  0.00000000E+00  0.00000000E+00  0.00000000E+00
  0.00000000E+00  0.00000000E+00  0.00000000E+00
  0.00000000E+00  0.00000000E+00  0.00000000E+00
  0.00000000E+00  0.00000000E+00  0.00000000E+00
  0.00000000E+00  0.00000000E+00  0.00000000E+00
  0.00000000E+00  0.00000000E+00  0.00000000E+00
  0.00000000E+00  0.00000000E+00  0.00000000E+00
  0.00000000E+00  0.00000000E+00  0.00000000E+00
  0.00000000E+00  0.00000000E+00  0.00000000E+00
  0.00000000E+00  0.00000000E+00  0.00000000E+00
