title                                   
    1.000000000000000     
    10.1479492820490549   -0.0137088449647546   -0.0721602801389317
    -0.0162735291362518    9.3192077328317406   -0.3414326512231689
    -0.0493499390332618   -0.2322270692610798    6.3242816408122522
   Cr   Hf   V    Zr
    14     4     7    11
Direct
  0.3587567861282216  0.3293057465942538 -0.0107413675438922
  0.4917034300789012  0.1758373223467985  0.2532395147448068
  0.3534340626203784  0.0097871201948627  0.4888918244840161
  0.4863472528482349  0.8692439523797730  0.2678140710712147
  0.7900515739225491  0.5030346242614420  0.2872385431590112
  0.8058497949682999  0.1727095988068696  0.2777023741253271
  0.4788328368002961  0.4952765909619236  0.7582823167085362
  0.0546339778961155  0.6443546235824302 -0.0037208382535633
  0.3598900048883082  0.0098632411584165  0.0184655654255286
  0.4915250916623317  0.1718738424377722  0.7225956501746966
  0.0474494896397862 -0.0269305465537885  0.5265841826796700
  0.3361340072195007  0.6456446809454266 -0.0274591092865424
  0.7771774874672157  0.8319600674127531  0.7113150575010689
  0.6252527913912470  0.0135183436470375  0.4778790342175647
  0.6447019010599920  0.6841428278108510  0.0229069053077873
  0.6566747235578682  0.3369294566815558 -0.0068762107638670
  0.8349652871102228  0.5375620625705789  0.7733693145122573
  0.4805603550220607  0.8352521163993097  0.7316367509449253
  0.2013527771677713  0.8136768021863842  0.7471436007559803
  0.6552956581759287  0.3380128628103410  0.4902201440596282
  0.1863946198266289  0.4996991933069492  0.7707446281996582
  0.6622015346844814  0.6700088158970449  0.5022598224405865
  0.1981737314369461  0.4952997616518854  0.2298208213176764
  0.3570945055665133  0.3297497485029560  0.5233308759660111
  0.3161799271317972  0.6483567987179878  0.5169060425364972
 -0.0143247862507931 -0.0606483271856975 -0.0651793661990667
  0.1817695466674952  0.1573274683515093  0.2475916759647985
 -0.0002993546146611  0.3436495997146398  0.4954942944507173
  0.8336145281969017  0.1370931937983428  0.6817689402235881
 -0.0222405686634768  0.3456461970811317  0.0356213175188674
  0.6546344950368327  0.0178155239288778  0.0003561454618399
  0.4838658666234385  0.5107525535584668  0.2665677568371634
  0.8386233335276359  0.8683273203427849  0.2961793041123747
  0.0083555338856324  0.6661438472414418  0.4926373619897208
  0.1955796997943731  0.8252688747520557  0.2397906166888710
  0.1897880975250239  0.1544540937046339  0.7596224384665429
 
  0.00000000E+00  0.00000000E+00  0.00000000E+00
  0.00000000E+00  0.00000000E+00  0.00000000E+00
  0.00000000E+00  0.00000000E+00  0.00000000E+00
  0.00000000E+00  0.00000000E+00  0.00000000E+00
  0.00000000E+00  0.00000000E+00  0.00000000E+00
  0.00000000E+00  0.00000000E+00  0.00000000E+00
  0.00000000E+00  0.00000000E+00  0.00000000E+00
  0.00000000E+00  0.00000000E+00  0.00000000E+00
  0.00000000E+00  0.00000000E+00  0.00000000E+00
  0.00000000E+00  0.00000000E+00  0.00000000E+00
  0.00000000E+00  0.00000000E+00  0.00000000E+00
  0.00000000E+00  0.00000000E+00  0.00000000E+00
  0.00000000E+00  0.00000000E+00  0.00000000E+00
  0.00000000E+00  0.00000000E+00  0.00000000E+00
  0.00000000E+00  0.00000000E+00  0.00000000E+00
  0.00000000E+00  0.00000000E+00  0.00000000E+00
  0.00000000E+00  0.00000000E+00  0.00000000E+00
  0.00000000E+00  0.00000000E+00  0.00000000E+00
  0.00000000E+00  0.00000000E+00  0.00000000E+00
  0.00000000E+00  0.00000000E+00  0.00000000E+00
  0.00000000E+00  0.00000000E+00  0.00000000E+00
  0.00000000E+00  0.00000000E+00  0.00000000E+00
  0.00000000E+00  0.00000000E+00  0.00000000E+00
  0.00000000E+00  0.00000000E+00  0.00000000E+00
  0.00000000E+00  0.00000000E+00  0.00000000E+00
  0.00000000E+00  0.00000000E+00  0.00000000E+00
  0.00000000E+00  0.00000000E+00  0.00000000E+00
  0.00000000E+00  0.00000000E+00  0.00000000E+00
  0.00000000E+00  0.00000000E+00  0.00000000E+00
  0.00000000E+00  0.00000000E+00  0.00000000E+00
  0.00000000E+00  0.00000000E+00  0.00000000E+00
  0.00000000E+00  0.00000000E+00  0.00000000E+00
  0.00000000E+00  0.00000000E+00  0.00000000E+00
  0.00000000E+00  0.00000000E+00  0.00000000E+00
  0.00000000E+00  0.00000000E+00  0.00000000E+00
  0.00000000E+00  0.00000000E+00  0.00000000E+00
