title                                   
    1.000000000000000     
     9.3007931221719513    0.0501754759413416   -0.0161181814248513
     0.0500883587045840    9.2797560203516589   -0.0109927467232955
    -0.0107462970628559   -0.0073493609320391    6.2234203334064215
   Cr   Hf   Mo   V    W 
     3     3    11    15     4
Direct
  0.1606141573273165  0.1647267708223045  0.7557706579649613
  0.3325744124226688  0.6677902100761349  0.4980381853031726
  0.6673206685533609  0.0013147350488104  0.5008421224668509
  0.6670103260511380 -0.0011778852664632  0.0016891366231560
  0.6651034714542641  0.6655407771292658  0.0039707979299232
  0.3226274789807430  0.3346221446498985  0.5029618940377516
  0.4938052196621212  0.5021023131897878  0.7519195202696084
  0.8388306160100960  0.4955999204071104  0.2558627194941646
  0.1723818416969119  0.8281822989024485  0.7450390025003463
  0.3346709557100087  0.0003937432341120  0.4985333211158393
  0.8371812808121002  0.1688409265073182  0.2534218118368813
  0.0032479585056069  0.0023961046898884  0.4970836216141825
  0.6648092125706009  0.6682841015178463  0.4982432039573887
  0.4996183653594704  0.1673965366884668  0.2516735437552375
  0.6642731670350396  0.3307922207903693  0.5034167661745197
  0.3287088478757610  0.3349580653981742 -0.0001873454009102
  0.8396017558277779  0.4921584619712816  0.7480295852400412
  0.1673372804150624  0.5082437576059460  0.2435026928469035
  0.3330375865539719  0.6681242808551503  0.0022673775217163
  0.6679870717476710  0.3318525734990685  0.0013089555155623
  0.1717240285243030  0.8313792154523405  0.2527599913652072
  0.8447559296788885  0.8338580973133638  0.2632705379436249
  0.8343276258799135  0.1677442844600235  0.7417934984541126
  0.5021577886284385  0.1631420767236119  0.7460644815417496
  0.4916916414711529  0.5065910395299923  0.2551105787883508
 -0.0015598716988886  0.3334148661472596  0.5013358390266787
  0.4894328203313962  0.8303137411942860  0.2667291565308259
  0.0053759853815791  0.6639179595087427  0.4994103316807194
  0.1628469964944232  0.1636461370581414  0.2409730700152157
  0.0010313552319187  0.3308117026348731 -0.0045540345434577
  0.4937795120499244  0.8351681301062036  0.7316471864722839
  0.1624291412916760  0.5053067856823004  0.7600470568183930
  0.0045060563913085  0.0032836094370140 -0.0026153357833008
  0.0044969507297244  0.6654765698773922  0.0033426056811027
  0.8394509982508220  0.8345364066798749  0.7348682398532400
  0.3328113667917288 -0.0007326795223396 -0.0035707746120427
 
  0.00000000E+00  0.00000000E+00  0.00000000E+00
  0.00000000E+00  0.00000000E+00  0.00000000E+00
  0.00000000E+00  0.00000000E+00  0.00000000E+00
  0.00000000E+00  0.00000000E+00  0.00000000E+00
  0.00000000E+00  0.00000000E+00  0.00000000E+00
  0.00000000E+00  0.00000000E+00  0.00000000E+00
  0.00000000E+00  0.00000000E+00  0.00000000E+00
  0.00000000E+00  0.00000000E+00  0.00000000E+00
  0.00000000E+00  0.00000000E+00  0.00000000E+00
  0.00000000E+00  0.00000000E+00  0.00000000E+00
  0.00000000E+00  0.00000000E+00  0.00000000E+00
  0.00000000E+00  0.00000000E+00  0.00000000E+00
  0.00000000E+00  0.00000000E+00  0.00000000E+00
  0.00000000E+00  0.00000000E+00  0.00000000E+00
  0.00000000E+00  0.00000000E+00  0.00000000E+00
  0.00000000E+00  0.00000000E+00  0.00000000E+00
  0.00000000E+00  0.00000000E+00  0.00000000E+00
  0.00000000E+00  0.00000000E+00  0.00000000E+00
  0.00000000E+00  0.00000000E+00  0.00000000E+00
  0.00000000E+00  0.00000000E+00  0.00000000E+00
  0.00000000E+00  0.00000000E+00  0.00000000E+00
  0.00000000E+00  0.00000000E+00  0.00000000E+00
  0.00000000E+00  0.00000000E+00  0.00000000E+00
  0.00000000E+00  0.00000000E+00  0.00000000E+00
  0.00000000E+00  0.00000000E+00  0.00000000E+00
  0.00000000E+00  0.00000000E+00  0.00000000E+00
  0.00000000E+00  0.00000000E+00  0.00000000E+00
  0.00000000E+00  0.00000000E+00  0.00000000E+00
  0.00000000E+00  0.00000000E+00  0.00000000E+00
  0.00000000E+00  0.00000000E+00  0.00000000E+00
  0.00000000E+00  0.00000000E+00  0.00000000E+00
  0.00000000E+00  0.00000000E+00  0.00000000E+00
  0.00000000E+00  0.00000000E+00  0.00000000E+00
  0.00000000E+00  0.00000000E+00  0.00000000E+00
  0.00000000E+00  0.00000000E+00  0.00000000E+00
  0.00000000E+00  0.00000000E+00  0.00000000E+00
