title                                   
    1.000000000000000     
     8.9728198935685484   -0.0148832625485048    0.0064799792366474
    -0.0148848067145067    8.9790285209050822   -0.0043191411207495
     0.0043247845237390   -0.0028818060455618    5.9828184476293282
   Cr   Mo   V    W    Zr
    15     6    12     2     1
Direct
  0.3336830430436862  0.6631602537374919  0.5008225796910766
  0.0010136298150466 -0.0040205099500234  0.5010731140190761
  0.1733320071120601  0.1627274709980289  0.2455289853668420
  0.1729449549087838  0.5073006224511982  0.7547437459481170
  0.6661842255568146  0.6672551769453438  0.5011050240346965
  0.3345602682859081  0.0003313518324818  0.5011261811370962
  0.3314643554054230  0.6619095539691866 -0.0006410085899424
  0.4941970776030514  0.5044598541337915  0.2521613325412940
  0.8292793273632622  0.1596049441267377  0.2455743068038146
  0.4978423554255653  0.1644443590877734  0.7522497273143604
  0.6648710067268663 -0.0005521510743822  0.0030964153877506
  0.1742506585259141  0.5046527845940730  0.2386602774396571
  0.0042769836300275  0.3390153939045222 -0.0005360504574602
  0.8311175821179253  0.5070034455506076  0.2449741789013277
  0.8337400002667567  0.8312186427919951  0.7485261433003212
  0.6612609157284242  0.3373163718601418  0.4970845247213913
  0.0000110237856762 -0.0028949136381317  0.0055722434158498
  0.6627293386902186  0.3347948225528006  0.0045593681030286
  0.6644613853910677 -0.0034491046608871  0.5003064286288681
  0.1708681941113488  0.8301998153703776  0.2546949055355022
  0.1722324301766280  0.1628123305508707  0.7509848687910873
  0.4948532257914625  0.5061714435730418  0.7474969944545552
  0.0006022339062296  0.6669935148782856  0.5011572029602697
  0.4970781799886566  0.1633295638244620  0.2495629082534393
  0.8320677623167838  0.8324679848982436  0.2560842432276250
  0.1711253688315564  0.8297648189550508  0.7474138439994507
  0.3344028200241580  0.3367748936730086  0.4948138312455829
  0.0013391784212104  0.6615998108345424 -0.0003883316163778
  0.4985774478400383  0.8316177246093042  0.2556703669182440
  0.8302755879833186  0.5042323975023385  0.7522924558670813
  0.3309673309191793  0.3364663994732633  0.0028396025854094
  0.4954525687694432  0.8323764885825199  0.7469469028829591
  0.3366152709285202  0.0021886221454046  0.0003261272047213
  0.8310392912589184  0.1622887242914649  0.7558832252978590
  0.6660924590753615  0.6691762992445136  0.0020061655696942
  0.0051905102747084  0.3372607983805611  0.4862271691157327
 
  0.00000000E+00  0.00000000E+00  0.00000000E+00
  0.00000000E+00  0.00000000E+00  0.00000000E+00
  0.00000000E+00  0.00000000E+00  0.00000000E+00
  0.00000000E+00  0.00000000E+00  0.00000000E+00
  0.00000000E+00  0.00000000E+00  0.00000000E+00
  0.00000000E+00  0.00000000E+00  0.00000000E+00
  0.00000000E+00  0.00000000E+00  0.00000000E+00
  0.00000000E+00  0.00000000E+00  0.00000000E+00
  0.00000000E+00  0.00000000E+00  0.00000000E+00
  0.00000000E+00  0.00000000E+00  0.00000000E+00
  0.00000000E+00  0.00000000E+00  0.00000000E+00
  0.00000000E+00  0.00000000E+00  0.00000000E+00
  0.00000000E+00  0.00000000E+00  0.00000000E+00
  0.00000000E+00  0.00000000E+00  0.00000000E+00
  0.00000000E+00  0.00000000E+00  0.00000000E+00
  0.00000000E+00  0.00000000E+00  0.00000000E+00
  0.00000000E+00  0.00000000E+00  0.00000000E+00
  0.00000000E+00  0.00000000E+00  0.00000000E+00
  0.00000000E+00  0.00000000E+00  0.00000000E+00
  0.00000000E+00  0.00000000E+00  0.00000000E+00
  0.00000000E+00  0.00000000E+00  0.00000000E+00
  0.00000000E+00  0.00000000E+00  0.00000000E+00
  0.00000000E+00  0.00000000E+00  0.00000000E+00
  0.00000000E+00  0.00000000E+00  0.00000000E+00
  0.00000000E+00  0.00000000E+00  0.00000000E+00
  0.00000000E+00  0.00000000E+00  0.00000000E+00
  0.00000000E+00  0.00000000E+00  0.00000000E+00
  0.00000000E+00  0.00000000E+00  0.00000000E+00
  0.00000000E+00  0.00000000E+00  0.00000000E+00
  0.00000000E+00  0.00000000E+00  0.00000000E+00
  0.00000000E+00  0.00000000E+00  0.00000000E+00
  0.00000000E+00  0.00000000E+00  0.00000000E+00
  0.00000000E+00  0.00000000E+00  0.00000000E+00
  0.00000000E+00  0.00000000E+00  0.00000000E+00
  0.00000000E+00  0.00000000E+00  0.00000000E+00
  0.00000000E+00  0.00000000E+00  0.00000000E+00
