title                                   
    1.000000000000000     
    10.1241576492319236   -0.0790093424403592   -0.0065391891433638
    -0.0789600068666528   10.0239388588719915   -0.0029129078174264
    -0.0043771285148108   -0.0019353515784975    6.7559537308068176
   Hf   Mo   Nb   Ti   Zr
     7     7     8     7     7
Direct
  0.1647545223034384  0.4913576628484667  0.7554147566488708
  0.1589161442830305  0.8410062833016845  0.7703824604593218
  0.3388332973194110  0.6646184986448823  0.4948323958989647
  0.1883340461466019  0.1734347166457796  0.7591430437498050
  0.8229633049820908  0.4924133128577465  0.7537680171137937
  0.0093763562546008  0.3236649154784275  0.0270989687083560
  0.0126402035878831  0.6654527749846311  0.4736848853998674
  0.1833480623888886  0.1636898129769175  0.2396930917384776
  0.4998439847212272  0.4927965220390615  0.7475666290089971
  0.6489477178387740  0.3345573040175486  0.5028784772878113
  0.5076456099918097  0.8333580739946679  0.7490181213754490
  0.5043854889232129  0.4955802718690147  0.2520527162212670
  0.6512392727486029  0.3354226033963000  0.0024026870192805
  0.1729067363092400  0.5010851453365618  0.2453615473262654
  0.5189374304916179  0.8346118380742055  0.2433912536677545
  0.0056781400182233  0.6569507625635639  0.0296598832119669
  0.6491594284284355  0.6631589141613512 -0.0094213284289337
  0.1623140369798607  0.8387084780068724  0.2180481999320782
  0.0027738572209962  0.0116465961392101  0.0192438331022397
  0.8094504362427328  0.1641618825246738  0.2461117276579672
  0.6488649052904146  0.6672532205717712  0.5084781937285813
  0.6532734616439084 -0.0066978403486801 -0.0088087693137940
  0.5149056824599940  0.1805072614111331  0.2466778473305626
  0.6566379593850681 -0.0104585570262011  0.5063030052183904
  0.3443425318707788  0.0029861271667140  0.0128984128463252
  0.3362773807590719  0.3452060826416622  0.0326800959628645
  0.3378593651128322  0.3477172092840914  0.4714966916847865
  0.5044815480439184  0.1847353294673011  0.7541824351935977
  0.8231799888396805  0.8299201005885301  0.2387212632151076
  0.3419059191053697  0.6657019844917730 -0.0009057470766639
  0.8365689365902805  0.8265419817032460  0.7593509448949846
  0.8137710821203752  0.4933731387060903  0.2548416751990609
  0.0017083156301394  0.0051376894262069  0.4810439326945811
  0.0124355083957659  0.3213076840012779  0.4804888799521934
  0.8181441994016528  0.1694910185454229  0.7548978838808958
  0.3431951381700730 -0.0003988004919067  0.4873218874889271
 
  0.00000000E+00  0.00000000E+00  0.00000000E+00
  0.00000000E+00  0.00000000E+00  0.00000000E+00
  0.00000000E+00  0.00000000E+00  0.00000000E+00
  0.00000000E+00  0.00000000E+00  0.00000000E+00
  0.00000000E+00  0.00000000E+00  0.00000000E+00
  0.00000000E+00  0.00000000E+00  0.00000000E+00
  0.00000000E+00  0.00000000E+00  0.00000000E+00
  0.00000000E+00  0.00000000E+00  0.00000000E+00
  0.00000000E+00  0.00000000E+00  0.00000000E+00
  0.00000000E+00  0.00000000E+00  0.00000000E+00
  0.00000000E+00  0.00000000E+00  0.00000000E+00
  0.00000000E+00  0.00000000E+00  0.00000000E+00
  0.00000000E+00  0.00000000E+00  0.00000000E+00
  0.00000000E+00  0.00000000E+00  0.00000000E+00
  0.00000000E+00  0.00000000E+00  0.00000000E+00
  0.00000000E+00  0.00000000E+00  0.00000000E+00
  0.00000000E+00  0.00000000E+00  0.00000000E+00
  0.00000000E+00  0.00000000E+00  0.00000000E+00
  0.00000000E+00  0.00000000E+00  0.00000000E+00
  0.00000000E+00  0.00000000E+00  0.00000000E+00
  0.00000000E+00  0.00000000E+00  0.00000000E+00
  0.00000000E+00  0.00000000E+00  0.00000000E+00
  0.00000000E+00  0.00000000E+00  0.00000000E+00
  0.00000000E+00  0.00000000E+00  0.00000000E+00
  0.00000000E+00  0.00000000E+00  0.00000000E+00
  0.00000000E+00  0.00000000E+00  0.00000000E+00
  0.00000000E+00  0.00000000E+00  0.00000000E+00
  0.00000000E+00  0.00000000E+00  0.00000000E+00
  0.00000000E+00  0.00000000E+00  0.00000000E+00
  0.00000000E+00  0.00000000E+00  0.00000000E+00
  0.00000000E+00  0.00000000E+00  0.00000000E+00
  0.00000000E+00  0.00000000E+00  0.00000000E+00
  0.00000000E+00  0.00000000E+00  0.00000000E+00
  0.00000000E+00  0.00000000E+00  0.00000000E+00
  0.00000000E+00  0.00000000E+00  0.00000000E+00
  0.00000000E+00  0.00000000E+00  0.00000000E+00
