title                                   
    1.000000000000000     
     9.2980954085194512    0.0085826079374740    0.0177906408944917
     0.0086010977568908    9.3031765001112472    0.0226986694366303
     0.0118886538738997    0.0151942082481511    6.2316411927045943
   Ti   V    W 
    10    18     8
Direct
  0.4980406960538343  0.5002710126748722  0.7432834257712397
  0.6592311737602820  0.6692316903394325  0.0058102882107118
  0.0035065289022325  0.0036803858519945  0.5038065755606220
  0.5015384122787057  0.1625093462497429  0.2482689227639577
  0.1649413898578049  0.5008658680264633  0.2465792397218058
  0.8368811235594202  0.4925007065616751  0.2481931599851954
  0.1762728499500883  0.8306199889058618  0.7701167839027961
  0.1755652543916827  0.8338671324700198  0.2366962781266726
  0.8346970509727578  0.1724431104747205  0.2472261568821347
 -0.0091460736565402  0.6693161536553063  0.5151605880427386
  0.4953728225015357  0.4959210400513713  0.2557244421606670
  0.6656790023646204 -0.0098776585203364  0.5056061525324159
  0.1699032582588599  0.1640746123112986  0.7541280915724139
  0.8247881043843118  0.8373121779804585  0.7530173542991897
  0.0058519065160313  0.3256707758393218  0.5099162041815484
  0.3504890930964495  0.6680555119320254  0.0093120159909508
  0.0015605425837684  0.0048707055076750 -0.0024790291160805
  0.6690400361308009  0.3384244868469156 -0.0072463720539298
  0.6643317412343418  0.6759643814749042  0.4984534812793187
  0.4932004997866075  0.8366242953770870  0.2586312085984339
  0.3426386392433039  0.6704314101991233  0.4941523136259396
  0.3359915148397962  0.0042165673766496 -0.0093329248138900
  0.1705563417784065  0.1693429708332789  0.2441267692539268
  0.4942188602512181  0.8364737763095340  0.7441358061934591
  0.4980351623221043  0.1658170525609616  0.7459820779960115
  0.3350633096963586 -0.0009669715398728  0.5082508829767355
  0.0034905756277598  0.3276978286808863 -0.0106938759238035
 -0.0128936279071191  0.6700250008444049 -0.0144835218024766
  0.3283199503997818  0.3283730467974654  0.4987486277840413
  0.8324653445647939  0.1657195720099767  0.7529009887160319
  0.8313209907016539  0.8365274222105070  0.2497677304042279
  0.3307351293783298  0.3298314227148907 -0.0030318065879007
  0.6644926576162344 -0.0059326960347845 -0.0054725677682803
  0.6657493313303223  0.3325231343485995  0.5015002468300289
  0.1687604532345310  0.5005144469777731  0.7520393866346528
  0.8293099539949286  0.4970602916997964  0.7512048980684932
 
  0.00000000E+00  0.00000000E+00  0.00000000E+00
  0.00000000E+00  0.00000000E+00  0.00000000E+00
  0.00000000E+00  0.00000000E+00  0.00000000E+00
  0.00000000E+00  0.00000000E+00  0.00000000E+00
  0.00000000E+00  0.00000000E+00  0.00000000E+00
  0.00000000E+00  0.00000000E+00  0.00000000E+00
  0.00000000E+00  0.00000000E+00  0.00000000E+00
  0.00000000E+00  0.00000000E+00  0.00000000E+00
  0.00000000E+00  0.00000000E+00  0.00000000E+00
  0.00000000E+00  0.00000000E+00  0.00000000E+00
  0.00000000E+00  0.00000000E+00  0.00000000E+00
  0.00000000E+00  0.00000000E+00  0.00000000E+00
  0.00000000E+00  0.00000000E+00  0.00000000E+00
  0.00000000E+00  0.00000000E+00  0.00000000E+00
  0.00000000E+00  0.00000000E+00  0.00000000E+00
  0.00000000E+00  0.00000000E+00  0.00000000E+00
  0.00000000E+00  0.00000000E+00  0.00000000E+00
  0.00000000E+00  0.00000000E+00  0.00000000E+00
  0.00000000E+00  0.00000000E+00  0.00000000E+00
  0.00000000E+00  0.00000000E+00  0.00000000E+00
  0.00000000E+00  0.00000000E+00  0.00000000E+00
  0.00000000E+00  0.00000000E+00  0.00000000E+00
  0.00000000E+00  0.00000000E+00  0.00000000E+00
  0.00000000E+00  0.00000000E+00  0.00000000E+00
  0.00000000E+00  0.00000000E+00  0.00000000E+00
  0.00000000E+00  0.00000000E+00  0.00000000E+00
  0.00000000E+00  0.00000000E+00  0.00000000E+00
  0.00000000E+00  0.00000000E+00  0.00000000E+00
  0.00000000E+00  0.00000000E+00  0.00000000E+00
  0.00000000E+00  0.00000000E+00  0.00000000E+00
  0.00000000E+00  0.00000000E+00  0.00000000E+00
  0.00000000E+00  0.00000000E+00  0.00000000E+00
  0.00000000E+00  0.00000000E+00  0.00000000E+00
  0.00000000E+00  0.00000000E+00  0.00000000E+00
  0.00000000E+00  0.00000000E+00  0.00000000E+00
  0.00000000E+00  0.00000000E+00  0.00000000E+00
