title                                   
    1.000000000000000     
     9.8182353468686543   -0.0384279771078045   -0.0192941065302620
    -0.0382201311411619    9.8369989237162390   -0.0082601537958637
    -0.0127304713758882   -0.0054986024448842    6.4775553228037772
   Nb   Ti   V    W    Zr
     7     7     7     8     7
Direct
  0.1571675132650250  0.1597150727070070  0.2514311817639078
  0.0091564907002374  0.6716492082689548 -0.0109815068045945
  0.3365014407094123 -0.0104201919384908  0.4955986156631961
  0.0079771008349174  0.0059489730600401 -0.0009674135023847
  0.0071478705083207  0.0028422131896517  0.4974668861104526
  0.5047804604875081  0.5184961760706538  0.2392683144464716
  0.5015984897346578  0.1507030875549327  0.7599958152236961
 -0.0195425881227932  0.3248782257455691 -0.0262434343973012
  0.8213214116209370  0.1597465401582103  0.2351802730109666
 -0.0112306205497547  0.3258503235857907  0.5249798369746344
  0.1700118740236009  0.1555947770635477  0.7536005900310732
  0.0233414201459586  0.6788435652801644  0.5047298861146207
  0.3350824474824962  0.6798494659517893  0.5013088082726788
  0.1662561275791510  0.5100110845461273  0.2387088844669993
  0.3333128198965278 -0.0160778095168237  0.0064097413744543
  0.8204476289176685  0.1574644021150794  0.7597309751764652
  0.5003283579147330  0.8306809898992213  0.7580007985502406
  0.4996305535417015  0.8363048353178467  0.2435970660002978
  0.5156403116683388  0.1414749943439688  0.2440240997921608
  0.3402547398345225  0.6871806893833000  0.0016327041422810
  0.5073198170224900  0.5209701039331942  0.7621349236651508
  0.1783361895560112  0.8387467239320057  0.7555633235547458
  0.8247332990292677  0.5069293796887815  0.7520771984103727
  0.6534331427775973 -0.0005247327836297 -0.0014322808811990
  0.6532432966196793  0.0030592845595087  0.4985545157604683
  0.1761311596671021  0.8338065270447951  0.2439408507777041
  0.6537129369443948  0.6675716336349546 -0.0109347043385457
  0.6702803015157539  0.3317721384486747 -0.0113763601365165
  0.6480400292589080  0.6653539818020318  0.5080430731545059
  0.3398402105108108  0.3323176133750171  0.4953782985290080
  0.1740147790357293  0.4997863503829845  0.7661197538652151
  0.8268178549002430  0.8375007886861242  0.7431273643995874
  0.8374716896927856  0.5040604473030423  0.2489119783553186
  0.8250066726803686  0.8352661518635205  0.2485073798654689
  0.6636477299053646  0.3307987265220297  0.5004571459034142
  0.3487870406903266  0.3218482588204273  0.0234554167049837
 
  0.00000000E+00  0.00000000E+00  0.00000000E+00
  0.00000000E+00  0.00000000E+00  0.00000000E+00
  0.00000000E+00  0.00000000E+00  0.00000000E+00
  0.00000000E+00  0.00000000E+00  0.00000000E+00
  0.00000000E+00  0.00000000E+00  0.00000000E+00
  0.00000000E+00  0.00000000E+00  0.00000000E+00
  0.00000000E+00  0.00000000E+00  0.00000000E+00
  0.00000000E+00  0.00000000E+00  0.00000000E+00
  0.00000000E+00  0.00000000E+00  0.00000000E+00
  0.00000000E+00  0.00000000E+00  0.00000000E+00
  0.00000000E+00  0.00000000E+00  0.00000000E+00
  0.00000000E+00  0.00000000E+00  0.00000000E+00
  0.00000000E+00  0.00000000E+00  0.00000000E+00
  0.00000000E+00  0.00000000E+00  0.00000000E+00
  0.00000000E+00  0.00000000E+00  0.00000000E+00
  0.00000000E+00  0.00000000E+00  0.00000000E+00
  0.00000000E+00  0.00000000E+00  0.00000000E+00
  0.00000000E+00  0.00000000E+00  0.00000000E+00
  0.00000000E+00  0.00000000E+00  0.00000000E+00
  0.00000000E+00  0.00000000E+00  0.00000000E+00
  0.00000000E+00  0.00000000E+00  0.00000000E+00
  0.00000000E+00  0.00000000E+00  0.00000000E+00
  0.00000000E+00  0.00000000E+00  0.00000000E+00
  0.00000000E+00  0.00000000E+00  0.00000000E+00
  0.00000000E+00  0.00000000E+00  0.00000000E+00
  0.00000000E+00  0.00000000E+00  0.00000000E+00
  0.00000000E+00  0.00000000E+00  0.00000000E+00
  0.00000000E+00  0.00000000E+00  0.00000000E+00
  0.00000000E+00  0.00000000E+00  0.00000000E+00
  0.00000000E+00  0.00000000E+00  0.00000000E+00
  0.00000000E+00  0.00000000E+00  0.00000000E+00
  0.00000000E+00  0.00000000E+00  0.00000000E+00
  0.00000000E+00  0.00000000E+00  0.00000000E+00
  0.00000000E+00  0.00000000E+00  0.00000000E+00
  0.00000000E+00  0.00000000E+00  0.00000000E+00
  0.00000000E+00  0.00000000E+00  0.00000000E+00
