title                                   
    1.000000000000000     
    10.1393855934459616    0.0264001154123835    0.0712058801817931
     0.0267673301256193   10.1491729162792996   -0.0014884723273684
     0.0474955479738995   -0.0009768526348582    6.7930392021319816
   Hf   Mo   Nb   Ta   Zr
    12     2    15     6     1
Direct
  0.6741212521567564  0.0012749529667997  0.0147766500195700
  0.6651996056175954  0.3338464491330837  0.4821159951826393
  0.5064414555204781  0.8385591621621478  0.7499217521182681
  0.1591484060488363  0.5043947254514033  0.2504184764522848
  0.4973525600478466  0.1610557703000516  0.7529577970492654
 -0.0009682545961391  0.0025780107276975  0.5041319333507300
  0.8290309227339202  0.5007568595168747  0.7503145710427863
  0.5130749050952460  0.5013727867477997  0.7789446660335976
  0.5019882594481816  0.5106128686399697  0.2169314710829447
 -0.0012717996738099  0.6730418966041752 -0.0152126106261511
  0.3339977616487856  0.6603226744178103  0.5213948051824866
  0.1715235073108888  0.8303422586429607  0.2460021514709846
  0.6775824962832674  0.6794642558033709  0.0055818521648827
  0.1657087331526656  0.1645792805738617  0.2481897805201188
  0.8297793750775340  0.8281185281042213  0.2535074242493784
  0.4998803779629695  0.8306416469532626  0.2470039823479839
  0.6806688114725460  0.3214543507120188  0.0201135736805384
  0.1711380903852552  0.8451804360373287  0.7559538843407294
  0.6640610854605576  0.6669270060762662  0.4875157974305339
  0.6755377523434120 -0.0011027619299550  0.4852934517871384
  0.0013890779541599  0.3216388375072764  0.5013219450791311
  0.3211894464027604  0.6715070754177500 -0.0286530663402781
 -0.0063327062115910  0.6742814709556917  0.5059691942234159
  0.8360134016055183  0.5008435158854584  0.2482756067673487
  0.1558007324845203  0.4885488961925350  0.7510818404241505
  0.8382582009253794  0.1758043329239050  0.7581358199720042
 -0.0006893589560044  0.0021058601171485 -0.0011455795144585
  0.3261380207950378  0.0061608110054398  0.4915455050416074
  0.4973567347824664  0.1620492872426767  0.2484150331257473
  0.0044145788911411  0.3279920555505557  0.0021334747682838
  0.8185457149771284  0.8242418485112654  0.7425607822122071
  0.8425241893255310  0.1701199552307530  0.2467338598441038
  0.3177178202019971  0.3176393377597655  0.0133517797194945
  0.3310885038172710  0.0081324975269397  0.0136717158223349
  0.1692715205543309  0.1639060180818803  0.7570566339803441
  0.3333188189535590  0.3316070424498104  0.4936880499938522
 
  0.00000000E+00  0.00000000E+00  0.00000000E+00
  0.00000000E+00  0.00000000E+00  0.00000000E+00
  0.00000000E+00  0.00000000E+00  0.00000000E+00
  0.00000000E+00  0.00000000E+00  0.00000000E+00
  0.00000000E+00  0.00000000E+00  0.00000000E+00
  0.00000000E+00  0.00000000E+00  0.00000000E+00
  0.00000000E+00  0.00000000E+00  0.00000000E+00
  0.00000000E+00  0.00000000E+00  0.00000000E+00
  0.00000000E+00  0.00000000E+00  0.00000000E+00
  0.00000000E+00  0.00000000E+00  0.00000000E+00
  0.00000000E+00  0.00000000E+00  0.00000000E+00
  0.00000000E+00  0.00000000E+00  0.00000000E+00
  0.00000000E+00  0.00000000E+00  0.00000000E+00
  0.00000000E+00  0.00000000E+00  0.00000000E+00
  0.00000000E+00  0.00000000E+00  0.00000000E+00
  0.00000000E+00  0.00000000E+00  0.00000000E+00
  0.00000000E+00  0.00000000E+00  0.00000000E+00
  0.00000000E+00  0.00000000E+00  0.00000000E+00
  0.00000000E+00  0.00000000E+00  0.00000000E+00
  0.00000000E+00  0.00000000E+00  0.00000000E+00
  0.00000000E+00  0.00000000E+00  0.00000000E+00
  0.00000000E+00  0.00000000E+00  0.00000000E+00
  0.00000000E+00  0.00000000E+00  0.00000000E+00
  0.00000000E+00  0.00000000E+00  0.00000000E+00
  0.00000000E+00  0.00000000E+00  0.00000000E+00
  0.00000000E+00  0.00000000E+00  0.00000000E+00
  0.00000000E+00  0.00000000E+00  0.00000000E+00
  0.00000000E+00  0.00000000E+00  0.00000000E+00
  0.00000000E+00  0.00000000E+00  0.00000000E+00
  0.00000000E+00  0.00000000E+00  0.00000000E+00
  0.00000000E+00  0.00000000E+00  0.00000000E+00
  0.00000000E+00  0.00000000E+00  0.00000000E+00
  0.00000000E+00  0.00000000E+00  0.00000000E+00
  0.00000000E+00  0.00000000E+00  0.00000000E+00
  0.00000000E+00  0.00000000E+00  0.00000000E+00
  0.00000000E+00  0.00000000E+00  0.00000000E+00
