title                                   
    1.000000000000000     
     9.3638976938090206   -0.0152166182598447    0.0317547770122436
    -0.0152739551940399    9.3844651214518446   -0.0241493757385626
     0.0212357106656926   -0.0161407843280324    6.2217149980356590
   Cr   Ti   W 
     8    10    18
Direct
  0.6635990472460364  0.6602578168955084 -0.0018532681263315
  0.0001356419942509  0.3336688341412232  0.4992527599210832
  0.6617471970338716  0.0053665670161725  0.5013445526291723
  0.4975861824788129  0.1648519739882790  0.2520488787943970
  0.3351688395823920  0.3285575890498850  0.0001830411412722
  0.4973492894970890  0.4983992432005440  0.7544021505969418
  0.3321591001065737  0.0060569386548189 -0.0013967156024596
  0.1707091050984235  0.1700628267574762  0.7497165899778800
  0.8334618144698115  0.1663764766473700  0.2580223158366411
  0.3370131926467858  0.6608903161442888  0.5038299351840344
  0.0015264244498585  0.6653517326777995  0.4996159463903918
  0.1761562211590567  0.8366783844116037  0.2436987853223141
  0.1655860461547972  0.4886773293318686  0.7508756231054663
  0.8240813086098481  0.8378600542144826  0.2521849260049421
  0.8264176349121107  0.8354507062726553  0.7492083168387926
  0.6594256569695992  0.3362130788110201  0.0003594189696958
  0.5043657449597024  0.8371725743503015  0.2464950964442772
  0.0063881159731227  0.0046884951586715 -0.0060497512364602
  0.8327179601306892  0.4997871126691033  0.2504866469443462
  0.4993755268376911  0.4994099271819018  0.2438148826587416
  0.8316788883450549  0.1662860583243588  0.7413734249042738
  0.4945055661592058  0.1661194682056506  0.7551874865863514
  0.1717174608590621  0.1672075624411260  0.2472329691454865
  0.3368959831613120  0.0050699079378934  0.5017651851577052
  0.0012356457822395  0.3283431740266050 -0.0031913094711607
  0.3344228851615423  0.3302513021162372  0.5016169618027442
  0.1673227383554503  0.4930700417391412  0.2455585565696602
  0.6618924863686021  0.0085104726281967  0.0016645740094218
  0.1705721436852645  0.8359272951385806  0.7545835713619162
  0.0055891575855568  0.0037762759522871  0.5049765545966901
  0.6610093739227282  0.3325072689422542  0.5008193099633399
  0.3385759034758773  0.6616720681766134 -0.0051503376174261
  0.8323241789369606  0.5004636476362070  0.7513208376308439
  0.0001096083756388  0.6660940727687410 -0.0022428260278204
  0.5047973374461791  0.8366299063225962  0.7539675551920119
  0.6623805920688036  0.6622935000685383  0.5042773544008241
 
  0.00000000E+00  0.00000000E+00  0.00000000E+00
  0.00000000E+00  0.00000000E+00  0.00000000E+00
  0.00000000E+00  0.00000000E+00  0.00000000E+00
  0.00000000E+00  0.00000000E+00  0.00000000E+00
  0.00000000E+00  0.00000000E+00  0.00000000E+00
  0.00000000E+00  0.00000000E+00  0.00000000E+00
  0.00000000E+00  0.00000000E+00  0.00000000E+00
  0.00000000E+00  0.00000000E+00  0.00000000E+00
  0.00000000E+00  0.00000000E+00  0.00000000E+00
  0.00000000E+00  0.00000000E+00  0.00000000E+00
  0.00000000E+00  0.00000000E+00  0.00000000E+00
  0.00000000E+00  0.00000000E+00  0.00000000E+00
  0.00000000E+00  0.00000000E+00  0.00000000E+00
  0.00000000E+00  0.00000000E+00  0.00000000E+00
  0.00000000E+00  0.00000000E+00  0.00000000E+00
  0.00000000E+00  0.00000000E+00  0.00000000E+00
  0.00000000E+00  0.00000000E+00  0.00000000E+00
  0.00000000E+00  0.00000000E+00  0.00000000E+00
  0.00000000E+00  0.00000000E+00  0.00000000E+00
  0.00000000E+00  0.00000000E+00  0.00000000E+00
  0.00000000E+00  0.00000000E+00  0.00000000E+00
  0.00000000E+00  0.00000000E+00  0.00000000E+00
  0.00000000E+00  0.00000000E+00  0.00000000E+00
  0.00000000E+00  0.00000000E+00  0.00000000E+00
  0.00000000E+00  0.00000000E+00  0.00000000E+00
  0.00000000E+00  0.00000000E+00  0.00000000E+00
  0.00000000E+00  0.00000000E+00  0.00000000E+00
  0.00000000E+00  0.00000000E+00  0.00000000E+00
  0.00000000E+00  0.00000000E+00  0.00000000E+00
  0.00000000E+00  0.00000000E+00  0.00000000E+00
  0.00000000E+00  0.00000000E+00  0.00000000E+00
  0.00000000E+00  0.00000000E+00  0.00000000E+00
  0.00000000E+00  0.00000000E+00  0.00000000E+00
  0.00000000E+00  0.00000000E+00  0.00000000E+00
  0.00000000E+00  0.00000000E+00  0.00000000E+00
  0.00000000E+00  0.00000000E+00  0.00000000E+00
