title                                   
    1.000000000000000     
     9.9465678985695405   -0.0547870473089724    0.0407002420723876
    -0.0546100682368091    9.9423645351886698    0.0317159601559628
     0.0273383509983608    0.0212280742032743    6.7104118440327598
   Hf   Mo   V    Zr
     9     9     9     9
Direct
  0.1776156510232136  0.8188492126160472  0.7227925372529778
  0.5057295902153675  0.8414306448286470  0.2617085913576557
 -0.0034001765782381  0.0019055978252975  0.5221961112252358
  0.6696937797434257  0.6766986696121341 -0.0235481740257397
  0.5111244950830326  0.5203491800720786  0.2762027852301953
  0.8265480903532031  0.8293883566734712  0.2652293313582026
  0.6530132816166164  0.3184984073039897  0.5194947163168208
  0.8453594933556492  0.5005606976988608  0.2527368278876256
  0.0001463650779817 -0.0079977172242217 -0.0112318071869426
  0.0105877074800577  0.6647224422563519  0.4931193235176140
  0.5019947156157094  0.1438032990162868  0.2712000985007454
  0.1627120077571399  0.1763655549034297  0.7515447850769481
  0.8252606957811631  0.1625065977848750  0.7607477679908026
  0.6710922293992331  0.6704188172099590  0.5178371186279609
  0.0061781281329894  0.3359828089027919  0.5112497873849036
  0.0083716392647939  0.3386347597048939 -0.0067753755093370
  0.1596475001279352  0.8112739442104880  0.2589446414880504
  0.8325133858102755  0.8316597767278838  0.7429939692454666
  0.0165423286575145  0.6702607543214690  0.0119822287976840
  0.5073322048241382  0.1307797393672212  0.7415132201998215
  0.6788871119894014 -0.0010787773603169 -0.0230642213524276
  0.6724053670684419  0.0136889788564103  0.5252124206265130
  0.5056495149689353  0.5250463453917075  0.7091714524023739
  0.3192979413211465  0.6498985836875552  0.4825016023657370
  0.1493422533286711  0.4986245883447394  0.2606376199327334
  0.3395471633980867  0.0217153044879597  0.5008805787043443
  0.1493945579654229  0.5051597625821506  0.7314014580140785
  0.3253769700296310  0.6519697295920432 -0.0014575627615354
  0.8330205211099685  0.1728626091134736  0.2474033025191405
  0.3324422260302335  0.3375723722810887 -0.0116315015326409
  0.8488512873476267  0.4981129725183868  0.7514649296749366
  0.6438435132383767  0.3200016533381092 -0.0112186905283497
  0.4967409743733166  0.8396530159018196  0.7296019228295137
  0.1541372193990607  0.1852053821443268  0.2542539968810625
  0.3339013823214772  0.3360388976297388  0.5137170717158940
  0.3290988833690022  0.0094370376788522  0.0011871357719366
 
  0.00000000E+00  0.00000000E+00  0.00000000E+00
  0.00000000E+00  0.00000000E+00  0.00000000E+00
  0.00000000E+00  0.00000000E+00  0.00000000E+00
  0.00000000E+00  0.00000000E+00  0.00000000E+00
  0.00000000E+00  0.00000000E+00  0.00000000E+00
  0.00000000E+00  0.00000000E+00  0.00000000E+00
  0.00000000E+00  0.00000000E+00  0.00000000E+00
  0.00000000E+00  0.00000000E+00  0.00000000E+00
  0.00000000E+00  0.00000000E+00  0.00000000E+00
  0.00000000E+00  0.00000000E+00  0.00000000E+00
  0.00000000E+00  0.00000000E+00  0.00000000E+00
  0.00000000E+00  0.00000000E+00  0.00000000E+00
  0.00000000E+00  0.00000000E+00  0.00000000E+00
  0.00000000E+00  0.00000000E+00  0.00000000E+00
  0.00000000E+00  0.00000000E+00  0.00000000E+00
  0.00000000E+00  0.00000000E+00  0.00000000E+00
  0.00000000E+00  0.00000000E+00  0.00000000E+00
  0.00000000E+00  0.00000000E+00  0.00000000E+00
  0.00000000E+00  0.00000000E+00  0.00000000E+00
  0.00000000E+00  0.00000000E+00  0.00000000E+00
  0.00000000E+00  0.00000000E+00  0.00000000E+00
  0.00000000E+00  0.00000000E+00  0.00000000E+00
  0.00000000E+00  0.00000000E+00  0.00000000E+00
  0.00000000E+00  0.00000000E+00  0.00000000E+00
  0.00000000E+00  0.00000000E+00  0.00000000E+00
  0.00000000E+00  0.00000000E+00  0.00000000E+00
  0.00000000E+00  0.00000000E+00  0.00000000E+00
  0.00000000E+00  0.00000000E+00  0.00000000E+00
  0.00000000E+00  0.00000000E+00  0.00000000E+00
  0.00000000E+00  0.00000000E+00  0.00000000E+00
  0.00000000E+00  0.00000000E+00  0.00000000E+00
  0.00000000E+00  0.00000000E+00  0.00000000E+00
  0.00000000E+00  0.00000000E+00  0.00000000E+00
  0.00000000E+00  0.00000000E+00  0.00000000E+00
  0.00000000E+00  0.00000000E+00  0.00000000E+00
  0.00000000E+00  0.00000000E+00  0.00000000E+00
