title                                   
    1.000000000000000     
     9.5200297585653821    0.0099462488735669   -0.0286152970600651
     0.0100613690759955    9.5836913674594388   -0.0013908561233620
    -0.0191126908059771   -0.0009866494689112    6.3664374785790425
   Hf   Nb   Ta   V 
     3     4    10    19
Direct
  0.3210161137967627  0.0065048824253898  0.0140214769685292
  0.6786467384408793  0.6558933179236839  0.5040459622338238
  0.0061554667965271  0.6632179640922703  0.5052124904094092
  0.3269888009079363  0.6660338267487459  0.4997378806191307
  0.3258356767834738  0.6655306948293612  0.0087236194156674
  0.0080273622097587  0.6670216786186538 -0.0089855376919101
  0.4978748687258738  0.1627233884996084  0.7344099864340842
  0.8449934504549620  0.4903883834579121  0.2248219202631536
  0.8316774442489718  0.8568830372166819  0.7608046241208003
  0.5040321651872015  0.8353577861020314  0.7559999111473252
  0.8335171089404662  0.8479493685947576  0.2378952131793592
  0.4931935380544237  0.4994518746269757  0.7551123224721503
  0.5065604484497486  0.8387403673749745  0.2546345282823494
  0.3303088387599287  0.3296250088517282  0.0129970960420125
  0.6727585220770920  0.3289973888827424  0.4935453983454315
  0.1540132840472244  0.1707243808532693  0.7333910581147575
  0.6672538390258007  0.3239004201548481 -0.0018008774242930
  0.6663377326835346  0.0122326288230259  0.0053422635389079
  0.1614476751622845  0.8489790123432387  0.2702409212878583
  0.6690260573808936  0.0108189903340641  0.4943796387321284
  0.0007145272795852  0.3268357627888837 -0.0049753124600303
  0.1451087525988144  0.1725141244265470  0.2654491083799631
  0.4934809036953198  0.4988930512610207  0.2462434367807927
  0.0011317817543133  0.3334696481301966  0.4950603482704953
 -0.0008920800417543  0.0109018207733102  0.0049577535705478
  0.8399817245908210  0.1624942290682783  0.7465322351033947
  0.3254501639619076  0.0014300807836857  0.4955335843283383
  0.6665751271239477  0.6632677321157703  0.0024621884388209
  0.3285454728273720  0.3344547754651289  0.4893840496641963
  0.5086905924494602  0.1628263812240226  0.2630072473355548
  0.1688161535373241  0.4812539356849654  0.7471480308849870
  0.0006345824193672  0.0036930864294200  0.4922525192178185
  0.8493357201738314  0.4732957166710109  0.7643347424317612
  0.8388050576204557  0.1600790349880388  0.2459918478445507
  0.1632571680233284  0.8491885350702475  0.7369653967987483
  0.1706992198521633  0.4844276843655104  0.2551229269193840
 
  0.00000000E+00  0.00000000E+00  0.00000000E+00
  0.00000000E+00  0.00000000E+00  0.00000000E+00
  0.00000000E+00  0.00000000E+00  0.00000000E+00
  0.00000000E+00  0.00000000E+00  0.00000000E+00
  0.00000000E+00  0.00000000E+00  0.00000000E+00
  0.00000000E+00  0.00000000E+00  0.00000000E+00
  0.00000000E+00  0.00000000E+00  0.00000000E+00
  0.00000000E+00  0.00000000E+00  0.00000000E+00
  0.00000000E+00  0.00000000E+00  0.00000000E+00
  0.00000000E+00  0.00000000E+00  0.00000000E+00
  0.00000000E+00  0.00000000E+00  0.00000000E+00
  0.00000000E+00  0.00000000E+00  0.00000000E+00
  0.00000000E+00  0.00000000E+00  0.00000000E+00
  0.00000000E+00  0.00000000E+00  0.00000000E+00
  0.00000000E+00  0.00000000E+00  0.00000000E+00
  0.00000000E+00  0.00000000E+00  0.00000000E+00
  0.00000000E+00  0.00000000E+00  0.00000000E+00
  0.00000000E+00  0.00000000E+00  0.00000000E+00
  0.00000000E+00  0.00000000E+00  0.00000000E+00
  0.00000000E+00  0.00000000E+00  0.00000000E+00
  0.00000000E+00  0.00000000E+00  0.00000000E+00
  0.00000000E+00  0.00000000E+00  0.00000000E+00
  0.00000000E+00  0.00000000E+00  0.00000000E+00
  0.00000000E+00  0.00000000E+00  0.00000000E+00
  0.00000000E+00  0.00000000E+00  0.00000000E+00
  0.00000000E+00  0.00000000E+00  0.00000000E+00
  0.00000000E+00  0.00000000E+00  0.00000000E+00
  0.00000000E+00  0.00000000E+00  0.00000000E+00
  0.00000000E+00  0.00000000E+00  0.00000000E+00
  0.00000000E+00  0.00000000E+00  0.00000000E+00
  0.00000000E+00  0.00000000E+00  0.00000000E+00
  0.00000000E+00  0.00000000E+00  0.00000000E+00
  0.00000000E+00  0.00000000E+00  0.00000000E+00
  0.00000000E+00  0.00000000E+00  0.00000000E+00
  0.00000000E+00  0.00000000E+00  0.00000000E+00
  0.00000000E+00  0.00000000E+00  0.00000000E+00
