title                                   
    1.000000000000000     
     9.1833145382258810   -0.0127298626087001   -0.0035776179438163
    -0.0126477027268997    9.3348697875497368    0.0345770129194597
    -0.0023738071272256    0.0227521050292459    6.1452052450795698
   Cr   V    W    Zr
    14    11     4     7
Direct
  0.1710113993356862  0.8290819409249433  0.7516688404272910
  0.3346827386454387  0.3335711476976869  0.4977613765931459
  0.1744105187415529  0.4886362162690587  0.7573133891499330
  0.6535147142806423  0.3366572308039117  0.5029388353300129
  0.4941737323552737  0.4953479000096900  0.2677068149762957
  0.6748859497285770  0.6395203121653551  0.5043267344302027
  0.0018007782348728  0.0022211189402047  0.4779281952225820
  0.6829078173982991  0.6447978672367717  0.0037184130920487
  0.0035215128309379  0.0024448809205491  0.0177361291246741
  0.3288101236405696  0.3349502346698922 -0.0054336620819226
  0.1517579869602967  0.1592703023553082  0.2478522109520618
  0.3283664670675891  0.0006749864052747  0.4862125895989529
  0.8247770040042934  0.5052691093876575  0.7544758616928725
  0.4937425397212807  0.1792204996524673  0.7314575953276381
  0.1696809154015481  0.8347407746973496  0.2534343741718246
  0.8341544290890212  0.1684791212939694  0.2590467950433685
  0.8255328271314444  0.5051501359309023  0.2556453559620641
  0.8317479396360488  0.1710479059640914  0.7413827396832132
  0.4938989644256385  0.4958412916668242  0.7365928520983365
  0.8492378264149963  0.8517524699730906  0.2466677149129876
  0.6740297173753321  0.0314627810218835  0.0067848068874730
  0.0090238050722287  0.6656665450989191  0.0074319660535821
  0.6721937919838424  0.0298967916216383  0.4986105725215291
  0.3331016285844066  0.6473054705655950  0.5033219793264945
 -0.0170118332596062  0.3369285409328768  0.4949157813654788
  0.3308175468121285  0.6526326336109124 -0.0023063381340713
 -0.0078250574301630  0.3376859079505324 -0.0007276836959581
  0.4882594551175771  0.1727840730502647  0.2619091958027523
  0.1707524900524710  0.4860296465612430  0.2506026601977041
  0.0071966825970835  0.6636701215528427  0.5115211277360581
  0.1578415357152574  0.1644358274966261  0.7306795995664380
  0.8368614685819599  0.8448871137719207  0.7603267780340203
  0.5110972220921565  0.8273524402445838  0.7412477577217614
  0.5231813306567151  0.8224659305738451  0.2559147941935878
  0.6567175170009304  0.3397938276020282 -0.0019221174945436
  0.3311465140036737 -0.0016730986207101 -0.0067440357898907
 
  0.00000000E+00  0.00000000E+00  0.00000000E+00
  0.00000000E+00  0.00000000E+00  0.00000000E+00
  0.00000000E+00  0.00000000E+00  0.00000000E+00
  0.00000000E+00  0.00000000E+00  0.00000000E+00
  0.00000000E+00  0.00000000E+00  0.00000000E+00
  0.00000000E+00  0.00000000E+00  0.00000000E+00
  0.00000000E+00  0.00000000E+00  0.00000000E+00
  0.00000000E+00  0.00000000E+00  0.00000000E+00
  0.00000000E+00  0.00000000E+00  0.00000000E+00
  0.00000000E+00  0.00000000E+00  0.00000000E+00
  0.00000000E+00  0.00000000E+00  0.00000000E+00
  0.00000000E+00  0.00000000E+00  0.00000000E+00
  0.00000000E+00  0.00000000E+00  0.00000000E+00
  0.00000000E+00  0.00000000E+00  0.00000000E+00
  0.00000000E+00  0.00000000E+00  0.00000000E+00
  0.00000000E+00  0.00000000E+00  0.00000000E+00
  0.00000000E+00  0.00000000E+00  0.00000000E+00
  0.00000000E+00  0.00000000E+00  0.00000000E+00
  0.00000000E+00  0.00000000E+00  0.00000000E+00
  0.00000000E+00  0.00000000E+00  0.00000000E+00
  0.00000000E+00  0.00000000E+00  0.00000000E+00
  0.00000000E+00  0.00000000E+00  0.00000000E+00
  0.00000000E+00  0.00000000E+00  0.00000000E+00
  0.00000000E+00  0.00000000E+00  0.00000000E+00
  0.00000000E+00  0.00000000E+00  0.00000000E+00
  0.00000000E+00  0.00000000E+00  0.00000000E+00
  0.00000000E+00  0.00000000E+00  0.00000000E+00
  0.00000000E+00  0.00000000E+00  0.00000000E+00
  0.00000000E+00  0.00000000E+00  0.00000000E+00
  0.00000000E+00  0.00000000E+00  0.00000000E+00
  0.00000000E+00  0.00000000E+00  0.00000000E+00
  0.00000000E+00  0.00000000E+00  0.00000000E+00
  0.00000000E+00  0.00000000E+00  0.00000000E+00
  0.00000000E+00  0.00000000E+00  0.00000000E+00
  0.00000000E+00  0.00000000E+00  0.00000000E+00
  0.00000000E+00  0.00000000E+00  0.00000000E+00
