title                                   
    1.000000000000000     
    10.0224776233468891   -0.0230077698027268   -0.0409528343548470
    -0.0225627749057622    9.9248459086778578   -0.0285041591912204
    -0.0267271903533280   -0.0192108311379375    6.7004431508070716
   Hf   Nb   Ta   Ti   Zr
     3    11     4    15     3
Direct
  0.3346831580133031 -0.0065547629866273  0.0149453798204066
  0.3306170081696684  0.6589325393439857 -0.0128845235699135
  0.5008061627725310  0.1718350930615107  0.7596171927713694
  0.1688871486806089  0.4955669050632373  0.7193258784912018
 -0.0043097868589319  0.3347395553768750  0.4984809960345871
 -0.0125625326367577  0.0059734204774286  0.4988518382872954
  0.8317456458078349  0.8289235396071698  0.2545537327364160
  0.8320422466717463  0.1616171286306380  0.7450543414719628
 -0.0041227283319964  0.0052980839786115  0.0024120373204218
  0.1543855590255976  0.1580623324559714  0.2565058394059950
  0.6854190439171455  0.3357595194205460 -0.0028162221930220
  0.8255444369985456  0.5010193539228281  0.7499809074205105
  0.8289742104195064  0.1680605417138909  0.2499955916196212
  0.5108164132988450  0.8339193205821955  0.7366142604082531
  0.6686737823529144  0.6750817093584797 -0.0038585044879813
  0.6626354167257226 -0.0002612289165918  0.4848036170664219
  0.6695767678757434  0.6629334827734935  0.5102749390286901
  0.6726594602153474  0.3356360287054909  0.4968025593739298
  0.8325929911954022  0.8443125892564675  0.7523454993082664
  0.1674396780718942  0.1533539010550278  0.7350888042954268
  0.1508981066252077  0.5200813298107705  0.2761587498989522
  0.3437978630747295 -0.0006182428965262  0.4852156823821679
  0.3189475858924513  0.3389511088485284  0.0063817063750240
  0.5035458782026593  0.8108839540980637  0.2696965817895840
  0.8365755709277414  0.5119830816027358  0.2551395635954638
  0.5103998012623796  0.4871504362028614  0.7651179783395394
 -0.0133816741191202  0.6645760907571958  0.5397726583938893
  0.0003433500360004  0.6671351366879782 -0.0241204701814525
  0.6640775511253045 -0.0129832835384784  0.0117023160628202
  0.5158048916038001  0.5006327886839138  0.2343181577384532
  0.5167388735008553  0.1808731263874844  0.2229871769824432
  0.1544984155585528  0.8495408790408200  0.7383475146664747
  0.3400757988528658  0.6668818335357102  0.5319621897673417
  0.1594430964364796  0.8224232290090869  0.2735051087207959
  0.0086054536677702  0.3385140262366884 -0.0029439638629941
  0.3331253549676496  0.3297654526525354  0.4706648847216398
 
  0.00000000E+00  0.00000000E+00  0.00000000E+00
  0.00000000E+00  0.00000000E+00  0.00000000E+00
  0.00000000E+00  0.00000000E+00  0.00000000E+00
  0.00000000E+00  0.00000000E+00  0.00000000E+00
  0.00000000E+00  0.00000000E+00  0.00000000E+00
  0.00000000E+00  0.00000000E+00  0.00000000E+00
  0.00000000E+00  0.00000000E+00  0.00000000E+00
  0.00000000E+00  0.00000000E+00  0.00000000E+00
  0.00000000E+00  0.00000000E+00  0.00000000E+00
  0.00000000E+00  0.00000000E+00  0.00000000E+00
  0.00000000E+00  0.00000000E+00  0.00000000E+00
  0.00000000E+00  0.00000000E+00  0.00000000E+00
  0.00000000E+00  0.00000000E+00  0.00000000E+00
  0.00000000E+00  0.00000000E+00  0.00000000E+00
  0.00000000E+00  0.00000000E+00  0.00000000E+00
  0.00000000E+00  0.00000000E+00  0.00000000E+00
  0.00000000E+00  0.00000000E+00  0.00000000E+00
  0.00000000E+00  0.00000000E+00  0.00000000E+00
  0.00000000E+00  0.00000000E+00  0.00000000E+00
  0.00000000E+00  0.00000000E+00  0.00000000E+00
  0.00000000E+00  0.00000000E+00  0.00000000E+00
  0.00000000E+00  0.00000000E+00  0.00000000E+00
  0.00000000E+00  0.00000000E+00  0.00000000E+00
  0.00000000E+00  0.00000000E+00  0.00000000E+00
  0.00000000E+00  0.00000000E+00  0.00000000E+00
  0.00000000E+00  0.00000000E+00  0.00000000E+00
  0.00000000E+00  0.00000000E+00  0.00000000E+00
  0.00000000E+00  0.00000000E+00  0.00000000E+00
  0.00000000E+00  0.00000000E+00  0.00000000E+00
  0.00000000E+00  0.00000000E+00  0.00000000E+00
  0.00000000E+00  0.00000000E+00  0.00000000E+00
  0.00000000E+00  0.00000000E+00  0.00000000E+00
  0.00000000E+00  0.00000000E+00  0.00000000E+00
  0.00000000E+00  0.00000000E+00  0.00000000E+00
  0.00000000E+00  0.00000000E+00  0.00000000E+00
  0.00000000E+00  0.00000000E+00  0.00000000E+00
