title                                   
    1.000000000000000     
    10.0559016142156477   -0.0450179806828610   -0.1082793535526631
    -0.0454603783021413   10.0252261939577192   -0.0390615637566102
    -0.0706771346747511   -0.0259270717673368    6.9252424903646572
   Hf   Mo   Nb   V    Zr
    15    12     2     1     6
Direct
  0.1669528891976120  0.8392330486029118  0.2504406741916806
  0.3349241362709408 -0.0043639547886966 -0.0401786282397809
  0.5011288361575477  0.5026097889524550  0.2753639640282116
  0.1610238708080860  0.4980878974395189  0.2249361010335130
  0.1399600986423907  0.4949941434642259  0.7939630951335128
  0.6779193427481298  0.0094520379668519  0.5084041918204282
  0.0064715572280974  0.0073763229728295 -0.0223755980333803
  0.3257284348593592  0.6683738538846182  0.5315127047475627
  0.8377252740185668  0.8206262025501466  0.7499809390982376
 -0.0122556256813191  0.3294599437050082  0.4899318786299170
  0.3457376011244208  0.3218063846120793 -0.0343383510991774
  0.4884456663384516  0.1630255422398404  0.2648730105188734
  0.0013923442501722  0.6604574080113985  0.4924343510064922
  0.6728445853111108  0.0103360016087703 -0.0117171350819697
  0.3450633758010635  0.6752677465599946 -0.0305208971137851
 -0.0199840428478891  0.3183888649605364  0.0161826542928159
  0.0012367908303774  0.0027155535421271  0.5034267225935442
  0.8440101828286004  0.1728438954547890  0.7475058910925226
  0.6647309749332604  0.6655374186579335  0.5102205266535043
  0.5115240145117959  0.8327374442514515  0.7269218620129508
  0.3324510366729855  0.0001452364597481  0.5200860735279152
  0.5163036228987199  0.5031026097232628  0.7359520113800273
  0.5048380623229292  0.1644385635963886  0.7274065605373263
  0.8388405988128729  0.1690209823020015  0.2464105969679226
  0.8239241063782453  0.5044743952588747  0.2584715741975284
  0.1569215400509599  0.8405285878746334  0.7357022262011539
 -0.0092472342261910  0.6727336139369626  0.0210504347078612
  0.8479643637493222  0.8362191497675445  0.2508590914724966
  0.6736514929818040  0.3278065054838384  0.5090504648570541
  0.1644488528136621  0.1502217332885263  0.7103035107542767
  0.8336786690367806  0.5040921955891469  0.7657474540299481
  0.6591669417068323  0.6704333360687449  0.0073256825712790
  0.4887195156513232  0.8417627499608411  0.2714049909195266
  0.3327770654777177  0.3353944334566594  0.5322312965745642
  0.1742456962705476  0.1596981013374580  0.2576563315594608
  0.6667353620707120  0.3309622612465789  0.0033737424559846
 
  0.00000000E+00  0.00000000E+00  0.00000000E+00
  0.00000000E+00  0.00000000E+00  0.00000000E+00
  0.00000000E+00  0.00000000E+00  0.00000000E+00
  0.00000000E+00  0.00000000E+00  0.00000000E+00
  0.00000000E+00  0.00000000E+00  0.00000000E+00
  0.00000000E+00  0.00000000E+00  0.00000000E+00
  0.00000000E+00  0.00000000E+00  0.00000000E+00
  0.00000000E+00  0.00000000E+00  0.00000000E+00
  0.00000000E+00  0.00000000E+00  0.00000000E+00
  0.00000000E+00  0.00000000E+00  0.00000000E+00
  0.00000000E+00  0.00000000E+00  0.00000000E+00
  0.00000000E+00  0.00000000E+00  0.00000000E+00
  0.00000000E+00  0.00000000E+00  0.00000000E+00
  0.00000000E+00  0.00000000E+00  0.00000000E+00
  0.00000000E+00  0.00000000E+00  0.00000000E+00
  0.00000000E+00  0.00000000E+00  0.00000000E+00
  0.00000000E+00  0.00000000E+00  0.00000000E+00
  0.00000000E+00  0.00000000E+00  0.00000000E+00
  0.00000000E+00  0.00000000E+00  0.00000000E+00
  0.00000000E+00  0.00000000E+00  0.00000000E+00
  0.00000000E+00  0.00000000E+00  0.00000000E+00
  0.00000000E+00  0.00000000E+00  0.00000000E+00
  0.00000000E+00  0.00000000E+00  0.00000000E+00
  0.00000000E+00  0.00000000E+00  0.00000000E+00
  0.00000000E+00  0.00000000E+00  0.00000000E+00
  0.00000000E+00  0.00000000E+00  0.00000000E+00
  0.00000000E+00  0.00000000E+00  0.00000000E+00
  0.00000000E+00  0.00000000E+00  0.00000000E+00
  0.00000000E+00  0.00000000E+00  0.00000000E+00
  0.00000000E+00  0.00000000E+00  0.00000000E+00
  0.00000000E+00  0.00000000E+00  0.00000000E+00
  0.00000000E+00  0.00000000E+00  0.00000000E+00
  0.00000000E+00  0.00000000E+00  0.00000000E+00
  0.00000000E+00  0.00000000E+00  0.00000000E+00
  0.00000000E+00  0.00000000E+00  0.00000000E+00
  0.00000000E+00  0.00000000E+00  0.00000000E+00
