title                                   
    1.000000000000000     
     9.2313198320109606   -0.0253444746103445   -0.0183724547760449
    -0.0253365884268038    9.2200904894809614    0.0208603343311803
    -0.0122635100284294    0.0139078090447700    6.1590274792932664
   Cr   Mo   Ta   V    W 
     6     2     1    12    15
Direct
  0.6657587185232262  0.0053613763664465  0.0026962128551456
 -0.0007917360983535  0.3327211262830113 -0.0016170330985057
  0.6670848877208321  0.6632050382734471  0.0005218602084714
  0.4993704075627630  0.1669129362755739  0.2495946895454667
  0.3327020074906100  0.0034663109175842  0.4973515395704863
  0.1689104904423910  0.8333177855141338  0.2503671047042965
 -0.0017158069992354  0.6637145685626802  0.4981573643983783
  0.1711869931111494  0.1676223196574647  0.2507581940373745
  0.5008878276096994  0.8347605288840099  0.7566328330596794
  0.6667383490389880  0.6627933913809682  0.4988346747853934
  0.1696808026244626  0.1678346504998391  0.7499671331677722
  0.8323760461386764  0.4979986481038488  0.2479525051081484
  0.8311636458401812  0.4986855195144647  0.7501331265441357
  0.6661944514482886  0.3352234510542226  0.4972990709473241
  0.3357626646728063  0.3297299054874331  0.4998966216752956
  0.3321491521881069  0.0037893522696274  0.0087901295392724
  0.5030453330786104  0.5007089672883316  0.7522069736939385
 -0.0000783327623726  0.3314881968195559  0.4979202047822730
  0.8328509642098605  0.1702605725422378  0.2457474687769398
  0.3311464772094231  0.6651654293164524  0.0039974208037534
  0.3355588068361197  0.3299902889636457  0.0016875641771692
  0.8351931957373326  0.1718538703095928  0.7505413086532683
  0.1660817013943920  0.4920559166127739  0.7526052339005231
  0.8283361422470452  0.8322634996908888  0.2462208119292655
  0.0026031969474471  0.0023089733038116  0.0024193908027672
  0.1656762175679895  0.4942951435239390  0.2485012786765914
  0.6649146452003381  0.0068184506442788  0.4924282020014912
  0.6664835974721824  0.3340634538678321  0.0021904646284445
  0.1698924767375473  0.8357074451264795  0.7513549695493268
  0.0038961002469985  0.0021130992972119  0.4964007637476542
  0.4984441469521242  0.8364650873428092  0.2466569087930003
  0.3330275895426707  0.6652029845587190  0.4987244860103910
  0.4966232231137531  0.1670997449033831  0.7504241782433971
  0.5017496682616808  0.4996928272391140  0.2493355988892445
 -0.0008476036024786  0.6639090399564248  0.0017178958673825
  0.8279435522947451  0.8314000996477632  0.7515828490250441
 
  0.00000000E+00  0.00000000E+00  0.00000000E+00
  0.00000000E+00  0.00000000E+00  0.00000000E+00
  0.00000000E+00  0.00000000E+00  0.00000000E+00
  0.00000000E+00  0.00000000E+00  0.00000000E+00
  0.00000000E+00  0.00000000E+00  0.00000000E+00
  0.00000000E+00  0.00000000E+00  0.00000000E+00
  0.00000000E+00  0.00000000E+00  0.00000000E+00
  0.00000000E+00  0.00000000E+00  0.00000000E+00
  0.00000000E+00  0.00000000E+00  0.00000000E+00
  0.00000000E+00  0.00000000E+00  0.00000000E+00
  0.00000000E+00  0.00000000E+00  0.00000000E+00
  0.00000000E+00  0.00000000E+00  0.00000000E+00
  0.00000000E+00  0.00000000E+00  0.00000000E+00
  0.00000000E+00  0.00000000E+00  0.00000000E+00
  0.00000000E+00  0.00000000E+00  0.00000000E+00
  0.00000000E+00  0.00000000E+00  0.00000000E+00
  0.00000000E+00  0.00000000E+00  0.00000000E+00
  0.00000000E+00  0.00000000E+00  0.00000000E+00
  0.00000000E+00  0.00000000E+00  0.00000000E+00
  0.00000000E+00  0.00000000E+00  0.00000000E+00
  0.00000000E+00  0.00000000E+00  0.00000000E+00
  0.00000000E+00  0.00000000E+00  0.00000000E+00
  0.00000000E+00  0.00000000E+00  0.00000000E+00
  0.00000000E+00  0.00000000E+00  0.00000000E+00
  0.00000000E+00  0.00000000E+00  0.00000000E+00
  0.00000000E+00  0.00000000E+00  0.00000000E+00
  0.00000000E+00  0.00000000E+00  0.00000000E+00
  0.00000000E+00  0.00000000E+00  0.00000000E+00
  0.00000000E+00  0.00000000E+00  0.00000000E+00
  0.00000000E+00  0.00000000E+00  0.00000000E+00
  0.00000000E+00  0.00000000E+00  0.00000000E+00
  0.00000000E+00  0.00000000E+00  0.00000000E+00
  0.00000000E+00  0.00000000E+00  0.00000000E+00
  0.00000000E+00  0.00000000E+00  0.00000000E+00
  0.00000000E+00  0.00000000E+00  0.00000000E+00
  0.00000000E+00  0.00000000E+00  0.00000000E+00
