title                                   
    1.000000000000000     
     9.5677961093060837    0.1640887431806000    0.0936457742854675
     0.1626212660828152    9.6508826744688658   -0.0836840770797386
     0.0626129530333186   -0.0558731127646788    6.4152582008367141
   Cr   Nb   Ti   V    Zr
     8     7     7     7     7
Direct
  0.3205316281010963  0.6753092769531245  0.4673902055496298
  0.3105471652042063  0.3583306362561818  0.4991940246495307
  0.0034346590975843  0.3400005796446990  0.0078433046015891
  0.0020426605501112  0.3444196256108895  0.5151859334328881
  0.4897028453361101  0.8289541940172289  0.2427727459003863
  0.0149604416210368  0.6503481378474947  0.4955862241247756
  0.1788328464538956  0.8084673188399781  0.2459614853419003
  0.1592263003943563  0.4979095338138758  0.7113266928155484
  0.3305437173733088 -0.0110050185153490  0.4780037486976867
  0.0104300831453076 -0.0111874807678075  0.0049369780736472
  0.8446425031804711  0.8127321282147114  0.2422498905985772
  0.0226103495690462  0.6469544210062371  0.0006958962556595
  0.1753586840729615  0.8120703176641707  0.7413961878372198
  0.3356142274994583 -0.0057704550755536  0.0040082287808430
  0.6605161378365952 -0.0166194246798408  0.4954459190333307
  0.8500035742728541  0.7920947053915861  0.7378620492453167
  0.6619107832177135  0.6742405626067770  0.4781672759692605
  0.8485197893916204  0.4910751402341920  0.2628530120530398
  0.4865153541508979  0.5087729994964056  0.2753391458921713
  0.4880188224442579  0.8238261620540038  0.7361464455376715
  0.4617542923921567  0.5335697720995891  0.7211603562134803
  0.6593109928628119  0.6503468883133314 -0.0002677801510955
  0.1579226908540956  0.2019834330087380  0.2591921950277303
  0.3303063646348586  0.6792334569433643  0.0280700147040913
  0.4839360733692510  0.1494940182089975  0.7382523010055940
  0.8534241781747520  0.1877446672869448  0.7835134183346353
  0.1614379540454182  0.5034154083560959  0.2818128418638421
  0.6790780431289273  0.3498437377758325 -0.0043256864123932
  0.8636590839355259  0.4899427172958536  0.7617739054996330
  0.6611218644064617  0.3399911599762018  0.5654877620451020
  0.0012343319663582 -0.0090940305038274  0.4967467109246867
  0.8401752069854705  0.1822478972284111  0.2524163780085205
  0.1638095957587238  0.1799181749827385  0.7424577959278374
  0.3294038122179528  0.3607941301254704 -0.0126743364952788
  0.6695562224347109 -0.0054233105344217 -0.0191550474321773
  0.4899067199196363  0.1850685188236731  0.2631737765451201
 
  0.00000000E+00  0.00000000E+00  0.00000000E+00
  0.00000000E+00  0.00000000E+00  0.00000000E+00
  0.00000000E+00  0.00000000E+00  0.00000000E+00
  0.00000000E+00  0.00000000E+00  0.00000000E+00
  0.00000000E+00  0.00000000E+00  0.00000000E+00
  0.00000000E+00  0.00000000E+00  0.00000000E+00
  0.00000000E+00  0.00000000E+00  0.00000000E+00
  0.00000000E+00  0.00000000E+00  0.00000000E+00
  0.00000000E+00  0.00000000E+00  0.00000000E+00
  0.00000000E+00  0.00000000E+00  0.00000000E+00
  0.00000000E+00  0.00000000E+00  0.00000000E+00
  0.00000000E+00  0.00000000E+00  0.00000000E+00
  0.00000000E+00  0.00000000E+00  0.00000000E+00
  0.00000000E+00  0.00000000E+00  0.00000000E+00
  0.00000000E+00  0.00000000E+00  0.00000000E+00
  0.00000000E+00  0.00000000E+00  0.00000000E+00
  0.00000000E+00  0.00000000E+00  0.00000000E+00
  0.00000000E+00  0.00000000E+00  0.00000000E+00
  0.00000000E+00  0.00000000E+00  0.00000000E+00
  0.00000000E+00  0.00000000E+00  0.00000000E+00
  0.00000000E+00  0.00000000E+00  0.00000000E+00
  0.00000000E+00  0.00000000E+00  0.00000000E+00
  0.00000000E+00  0.00000000E+00  0.00000000E+00
  0.00000000E+00  0.00000000E+00  0.00000000E+00
  0.00000000E+00  0.00000000E+00  0.00000000E+00
  0.00000000E+00  0.00000000E+00  0.00000000E+00
  0.00000000E+00  0.00000000E+00  0.00000000E+00
  0.00000000E+00  0.00000000E+00  0.00000000E+00
  0.00000000E+00  0.00000000E+00  0.00000000E+00
  0.00000000E+00  0.00000000E+00  0.00000000E+00
  0.00000000E+00  0.00000000E+00  0.00000000E+00
  0.00000000E+00  0.00000000E+00  0.00000000E+00
  0.00000000E+00  0.00000000E+00  0.00000000E+00
  0.00000000E+00  0.00000000E+00  0.00000000E+00
  0.00000000E+00  0.00000000E+00  0.00000000E+00
  0.00000000E+00  0.00000000E+00  0.00000000E+00
