title                                   
    1.000000000000000     
     9.7045994221267442    0.0176812254792928   -0.0808361802049297
     0.0179253448369178    9.8256090148733115   -0.0019566591845214
    -0.0538673939086502   -0.0012794483638683    6.4888689683430814
   Hf   Mo   Nb   Ti   V 
     7     8     7     7     7
Direct
  0.4981677734435705  0.8367970923246570  0.2498420910559894
  0.8302739288377797  0.8358064428166821  0.2429173370032960
  0.5001306676656168  0.8343518447841974  0.7472091914071051
  0.8251546013959599  0.1503451558521554  0.7708730241713677
  0.3298707018233448  0.3351407705718947  0.0078129750833874
  0.0029236228196291  0.3314297811806756  0.5027729965053649
  0.6647012099304096  0.3348464549527769  0.4896115458548580
  0.1719213918038423  0.1582969067540880  0.7534412507551733
  0.3337662295845447  0.3320706636045645  0.4984771299463967
  0.0025137861555563  0.6689581629988147  0.5005431624289215
  0.3282368042319566  0.0049754884941807  0.5017346378029023
  0.6707387793053156  0.6599396565961831  0.5010233916642531
  0.8372632616638777  0.5098904257101188  0.7558057249802639
  0.5001476138355818  0.5072373214063612  0.2536392914301095
  0.3318182471127955  0.6620389010150126  0.4916966863763358
  0.4975991576014661  0.5061944125498676  0.7444680962578305
  0.0192273809802859 -0.0035459310450784 -0.0091308550432026
  0.1764455212060917  0.1557604047937543  0.2571917023737762
  0.6618217490305661  0.3392755258159752  0.0044695655291735
  0.4968888375727238  0.1628507248809998  0.7451610448150859
  0.8381844333062668  0.5156006641517241  0.2436901259018755
  0.8331635369596672  0.8289523438154248  0.7444130462602800
  0.8240601370992949  0.1504119528193572  0.2324075816880021
  0.0101506714729104  0.0018191471796201  0.5102923791276665
  0.1722857727168040  0.8267157044511727  0.2569826777724898
  0.1720024771943076  0.8233052479147476  0.7453087324217033
  0.3344181356119506  0.6439077370615862  0.0151674925292188
  0.0049862696404416  0.3445748618378813  0.0047038328660291
  0.1664912272175228  0.5161049033863313  0.7327796646840019
  0.1661343424830187  0.5177486185957760  0.2752770746537637
  0.4984470089634743  0.1530588418835530  0.2515775547001832
  0.6402789777068251  0.0159528569522984  0.0115013317340185
  0.6739752245414103  0.6517134804687975 -0.0090521006658533
 -0.0045577609691744  0.6537571867031611 -0.0077742849659481
  0.3321155181410617  0.0138530063411082 -0.0004705078169568
  0.6582527619133048  0.0198632403795809  0.4836354087111374
 
  0.00000000E+00  0.00000000E+00  0.00000000E+00
  0.00000000E+00  0.00000000E+00  0.00000000E+00
  0.00000000E+00  0.00000000E+00  0.00000000E+00
  0.00000000E+00  0.00000000E+00  0.00000000E+00
  0.00000000E+00  0.00000000E+00  0.00000000E+00
  0.00000000E+00  0.00000000E+00  0.00000000E+00
  0.00000000E+00  0.00000000E+00  0.00000000E+00
  0.00000000E+00  0.00000000E+00  0.00000000E+00
  0.00000000E+00  0.00000000E+00  0.00000000E+00
  0.00000000E+00  0.00000000E+00  0.00000000E+00
  0.00000000E+00  0.00000000E+00  0.00000000E+00
  0.00000000E+00  0.00000000E+00  0.00000000E+00
  0.00000000E+00  0.00000000E+00  0.00000000E+00
  0.00000000E+00  0.00000000E+00  0.00000000E+00
  0.00000000E+00  0.00000000E+00  0.00000000E+00
  0.00000000E+00  0.00000000E+00  0.00000000E+00
  0.00000000E+00  0.00000000E+00  0.00000000E+00
  0.00000000E+00  0.00000000E+00  0.00000000E+00
  0.00000000E+00  0.00000000E+00  0.00000000E+00
  0.00000000E+00  0.00000000E+00  0.00000000E+00
  0.00000000E+00  0.00000000E+00  0.00000000E+00
  0.00000000E+00  0.00000000E+00  0.00000000E+00
  0.00000000E+00  0.00000000E+00  0.00000000E+00
  0.00000000E+00  0.00000000E+00  0.00000000E+00
  0.00000000E+00  0.00000000E+00  0.00000000E+00
  0.00000000E+00  0.00000000E+00  0.00000000E+00
  0.00000000E+00  0.00000000E+00  0.00000000E+00
  0.00000000E+00  0.00000000E+00  0.00000000E+00
  0.00000000E+00  0.00000000E+00  0.00000000E+00
  0.00000000E+00  0.00000000E+00  0.00000000E+00
  0.00000000E+00  0.00000000E+00  0.00000000E+00
  0.00000000E+00  0.00000000E+00  0.00000000E+00
  0.00000000E+00  0.00000000E+00  0.00000000E+00
  0.00000000E+00  0.00000000E+00  0.00000000E+00
  0.00000000E+00  0.00000000E+00  0.00000000E+00
  0.00000000E+00  0.00000000E+00  0.00000000E+00
