title                                   
    1.000000000000000     
    10.5494560128253774   -0.0117303776016345    0.0673624766611129
    -0.0106451278787781   10.2255749514095573    0.0442182463811808
     0.0449553871196080    0.0288484683882527    6.7076063356324660
   Hf   Ti   V    Zr
    14    11     4     7
Direct
  0.6491874382955077  0.3342312412041792 -0.0171527405778194
  0.3350786418504318  0.3458142533741508  0.5024177218546776
  0.5215501012441517  0.5296704985437601  0.2660060331335814
  0.1669646861099918  0.1556085594908861  0.7694377308192525
  0.4966627309329573  0.8335309559294312  0.2480122729573838
  0.3352480685467053  0.3354534923255412  0.0003910378184635
  0.8308258902251195  0.8549789684262193  0.7805172898956119
  0.8575212160854105  0.1843895380545179  0.7556511740778377
  0.8194782049048356  0.1551682535331645  0.2477308066208837
  0.1790431312421094  0.8451990026541768  0.7745804303520053
  0.4632667891877062  0.1368176787822079  0.7354052062589829
  0.1564953050196827  0.5125067305178100  0.2517466885597656
  0.0097819824455222 -0.0023023897580001  0.4803855074866526
  0.7960885265976188  0.8478851466307064  0.2381294959921051
  0.2991057881825284 -0.0019266961328301  0.4523924617301668
  0.0208068999247710  0.3031122916469374  0.4553566230514911
  0.1884622767001447  0.8175674122966858  0.2264392055005985
  0.5218274242407666  0.5214464778523173  0.7201063637869310
  0.8366480078506441  0.5007551903308721  0.7664563416361557
  0.0202065723516864  0.3072732625659932  0.0457168369164012
  0.3246784873871598  0.6537783171733280  0.5195628459904630
  0.6943653083592750  0.6737536523058962  0.5379975052671120
 -0.0081924976308621  0.6925191508160053  0.0236096000765166
  0.0142906905765123 -0.0096355723600634  0.0442644407200410
  0.6556035482700004  0.0290632518492687 -0.0441981652211308
  0.3250031529279309  0.0029449950486593  0.0424500769651162
  0.6744130932532888  0.0172609122067073  0.5412047546571597
  0.1798784099747583  0.1537965535808747  0.2157145318747614
  0.6751142244455068  0.6631474391240826 -0.0443994741543847
  0.5046795092957538  0.1438258342917902  0.2653269730092991
  0.3409495626172958  0.6376531596921879 -0.0322441540262499
  0.1271683744213107  0.4843300431336327  0.7478694999668802
  0.5044376508731697  0.8325248047614753  0.7438294871756913
 -0.0108400893707172  0.6874580345818778  0.4868286525316479
  0.8383005371774600  0.4981016307349375  0.2300545542437766
  0.6559003554838647  0.3222979247906109  0.5224023830521737
 
  0.00000000E+00  0.00000000E+00  0.00000000E+00
  0.00000000E+00  0.00000000E+00  0.00000000E+00
  0.00000000E+00  0.00000000E+00  0.00000000E+00
  0.00000000E+00  0.00000000E+00  0.00000000E+00
  0.00000000E+00  0.00000000E+00  0.00000000E+00
  0.00000000E+00  0.00000000E+00  0.00000000E+00
  0.00000000E+00  0.00000000E+00  0.00000000E+00
  0.00000000E+00  0.00000000E+00  0.00000000E+00
  0.00000000E+00  0.00000000E+00  0.00000000E+00
  0.00000000E+00  0.00000000E+00  0.00000000E+00
  0.00000000E+00  0.00000000E+00  0.00000000E+00
  0.00000000E+00  0.00000000E+00  0.00000000E+00
  0.00000000E+00  0.00000000E+00  0.00000000E+00
  0.00000000E+00  0.00000000E+00  0.00000000E+00
  0.00000000E+00  0.00000000E+00  0.00000000E+00
  0.00000000E+00  0.00000000E+00  0.00000000E+00
  0.00000000E+00  0.00000000E+00  0.00000000E+00
  0.00000000E+00  0.00000000E+00  0.00000000E+00
  0.00000000E+00  0.00000000E+00  0.00000000E+00
  0.00000000E+00  0.00000000E+00  0.00000000E+00
  0.00000000E+00  0.00000000E+00  0.00000000E+00
  0.00000000E+00  0.00000000E+00  0.00000000E+00
  0.00000000E+00  0.00000000E+00  0.00000000E+00
  0.00000000E+00  0.00000000E+00  0.00000000E+00
  0.00000000E+00  0.00000000E+00  0.00000000E+00
  0.00000000E+00  0.00000000E+00  0.00000000E+00
  0.00000000E+00  0.00000000E+00  0.00000000E+00
  0.00000000E+00  0.00000000E+00  0.00000000E+00
  0.00000000E+00  0.00000000E+00  0.00000000E+00
  0.00000000E+00  0.00000000E+00  0.00000000E+00
  0.00000000E+00  0.00000000E+00  0.00000000E+00
  0.00000000E+00  0.00000000E+00  0.00000000E+00
  0.00000000E+00  0.00000000E+00  0.00000000E+00
  0.00000000E+00  0.00000000E+00  0.00000000E+00
  0.00000000E+00  0.00000000E+00  0.00000000E+00
  0.00000000E+00  0.00000000E+00  0.00000000E+00
