title                                   
    1.000000000000000     
     9.4202628975441680   -0.0708186164427744   -0.0316120019424732
    -0.0708474330342850    9.4724946349258641    0.0834929918849546
    -0.0206789889882636    0.0553896733233772    6.2791367115966104
   Cr   Hf   Mo   V 
     9     9     9     9
Direct
  0.1538369138323976  0.4909623629860269  0.7519210890992249
  0.1772348500497347  0.1742648665425595  0.2368334129331262
  0.8215906371565355  0.1760126312741454  0.2458546501005442
 -0.0024067097278603  0.6500841494187989  0.5170608494021643
  0.3268705457221618  0.3236848334616580  0.0116778695940524
  0.8237986833099796  0.8275111504101460  0.7571717770072895
  0.6755722833494909  0.6770341468466389 -0.0125534312861931
  0.8410531456844419  0.5149481041994259  0.7371280118232927
  0.5069336364974342  0.4796679309225148  0.2616698729402744
  0.3225200480392905  0.6492747656931780  0.4864301076307901
  0.5140880478795209  0.4876644459037506  0.7610659377518157
 -0.0031884301682925  0.0180769008005663  0.4827619571619040
  0.3321903378182805  0.6474994424719414  0.0191087664148829
  0.5091670584743808  0.8410288842877671  0.7490532185613176
  0.1566807853950034  0.8352209170789008  0.7516976606542557
  0.8284081316743005  0.1802928710442560  0.7636272933495711
  0.8373371263638171  0.8276731787520607  0.2423588824740932
  0.8311340316399652  0.5016877113594966  0.2386029366657074
  0.1744965564990150  0.1764030322379836  0.7554188670063493
  0.6616297553894214  0.3302042482793415  0.4930311504508362
  0.0086084247724748  0.3386220915046754  0.4996172735207538
  0.4951469357149569  0.1659397275694116  0.2495345928180399
  0.0029803564290046  0.6585212847621124 -0.0110596136899044
  0.3328453173799918  0.0059013651213651  0.0055197828312174
  0.6709142314501907  0.6672373993523065  0.5013491334337757
  0.3318296918770241  0.0105023580790693  0.4902762203748819
  0.5096811466688491  0.8360691874954999  0.2479761854544786
  0.1610709820874371  0.8395045775452685  0.2344948733309229
  0.6649598656422967  0.0078206352328660  0.0132596289578887
  0.0159789595441881  0.3372676926084147 -0.0012994650149642
  0.4978193769010226  0.1662475934079692  0.7540933346842654
  0.1537430550341391  0.4798260850105051  0.2495826500497312
  0.0096799627299303  0.0191361823501084  0.0115102214691663
  0.6681581700075031  0.0074446621428078  0.4896064219544379
  0.6576346915911884  0.3207125319166134  0.0236506566585952
  0.3300013972907844  0.3300500519298503  0.4919672234314143
 
  0.00000000E+00  0.00000000E+00  0.00000000E+00
  0.00000000E+00  0.00000000E+00  0.00000000E+00
  0.00000000E+00  0.00000000E+00  0.00000000E+00
  0.00000000E+00  0.00000000E+00  0.00000000E+00
  0.00000000E+00  0.00000000E+00  0.00000000E+00
  0.00000000E+00  0.00000000E+00  0.00000000E+00
  0.00000000E+00  0.00000000E+00  0.00000000E+00
  0.00000000E+00  0.00000000E+00  0.00000000E+00
  0.00000000E+00  0.00000000E+00  0.00000000E+00
  0.00000000E+00  0.00000000E+00  0.00000000E+00
  0.00000000E+00  0.00000000E+00  0.00000000E+00
  0.00000000E+00  0.00000000E+00  0.00000000E+00
  0.00000000E+00  0.00000000E+00  0.00000000E+00
  0.00000000E+00  0.00000000E+00  0.00000000E+00
  0.00000000E+00  0.00000000E+00  0.00000000E+00
  0.00000000E+00  0.00000000E+00  0.00000000E+00
  0.00000000E+00  0.00000000E+00  0.00000000E+00
  0.00000000E+00  0.00000000E+00  0.00000000E+00
  0.00000000E+00  0.00000000E+00  0.00000000E+00
  0.00000000E+00  0.00000000E+00  0.00000000E+00
  0.00000000E+00  0.00000000E+00  0.00000000E+00
  0.00000000E+00  0.00000000E+00  0.00000000E+00
  0.00000000E+00  0.00000000E+00  0.00000000E+00
  0.00000000E+00  0.00000000E+00  0.00000000E+00
  0.00000000E+00  0.00000000E+00  0.00000000E+00
  0.00000000E+00  0.00000000E+00  0.00000000E+00
  0.00000000E+00  0.00000000E+00  0.00000000E+00
  0.00000000E+00  0.00000000E+00  0.00000000E+00
  0.00000000E+00  0.00000000E+00  0.00000000E+00
  0.00000000E+00  0.00000000E+00  0.00000000E+00
  0.00000000E+00  0.00000000E+00  0.00000000E+00
  0.00000000E+00  0.00000000E+00  0.00000000E+00
  0.00000000E+00  0.00000000E+00  0.00000000E+00
  0.00000000E+00  0.00000000E+00  0.00000000E+00
  0.00000000E+00  0.00000000E+00  0.00000000E+00
  0.00000000E+00  0.00000000E+00  0.00000000E+00
