title                                   
    1.000000000000000     
     9.6166285538671676   -0.0224396465103848    0.0353857219965507
    -0.0224532280028927    9.6363680212038325    0.0231129013164615
     0.0235333496257777    0.0153954370309693    6.4118634499046996
   Cr   Mo   Ta   Ti   W 
     3    11    15     3     4
Direct
  0.5008981714467701  0.8273467624207946  0.7471881876450549
  0.8304521610064953  0.5009496664691951  0.2558140584546335
  0.1691487898256268  0.5023919801790899  0.7589870963595586
  0.6671939727125421  0.3377015639086235 -0.0006869815005135
  0.5042801749462603  0.5009925786877156  0.2480085047373711
  0.3316968093631980  0.3370963047891998 -0.0014232032916681
  0.5028152520037843  0.1724357519693493  0.7512265858200632
 -0.0018965443032120  0.0013374514050466  0.4992111296426799
  0.5037566277140946  0.5015637629106684  0.7552983063307703
 -0.0012725849759570  0.6595730412925457  0.4970405799548430
  0.6646525957497755  0.6664576013019573 -0.0010063984249118
  0.8323043739188759  0.8296511846466793  0.2491916899922534
  0.1670533677870089  0.1663827774554946  0.7521772391862204
  0.8318117465836244  0.1708986251763662  0.7470873491845819
  0.8310644733609713  0.1710941707501320  0.2508434400649605
  0.1657741132791229  0.8312387603576387  0.2548433680152383
  0.5036974051453668  0.1749969271931242  0.2439178605952549
  0.3323382347794013  0.3382085861998357  0.5117520253235341
  0.3382823014346294 -0.0020925070330418 -0.0139663999276650
  0.1679763897351287  0.1653375564270561  0.2522615013570463
  0.6640770238040216 -0.0022065859034039  0.5039264305396322
  0.0015292333446653  0.3396151244172557  0.0001037358526780
  0.3361269419150077  0.6613544037119043  0.5101997830524539
  0.5013389617099627  0.8276079400760797  0.2415579246431868
 -0.0018306234676386  0.6577174773441236  0.0066350026783021
  0.3397614708167697 -0.0007513930573959  0.5095674486837571
  0.8343942919593951  0.8251835274498059  0.7419035757652428
 -0.0048405392899614  0.0010656253819409 -0.0039200528745986
  0.0020448272541837  0.3389923877015644  0.5080848114939472
  0.1599933765416596  0.8273798850059856  0.7448584572608706
  0.8253978307599891  0.5044684513158783  0.7503873598829318
  0.6660802372944723 -0.0007302775105007 -0.0150323236838025
  0.6678514458587905  0.3385064348314459  0.5004938430861688
  0.6648084067790390  0.6649868413281524  0.4939247250023852
  0.1688186146242504  0.5010664324938152  0.2535300380316548
  0.3324206685818857  0.6621811789058779 -0.0039866989341161
 
  0.00000000E+00  0.00000000E+00  0.00000000E+00
  0.00000000E+00  0.00000000E+00  0.00000000E+00
  0.00000000E+00  0.00000000E+00  0.00000000E+00
  0.00000000E+00  0.00000000E+00  0.00000000E+00
  0.00000000E+00  0.00000000E+00  0.00000000E+00
  0.00000000E+00  0.00000000E+00  0.00000000E+00
  0.00000000E+00  0.00000000E+00  0.00000000E+00
  0.00000000E+00  0.00000000E+00  0.00000000E+00
  0.00000000E+00  0.00000000E+00  0.00000000E+00
  0.00000000E+00  0.00000000E+00  0.00000000E+00
  0.00000000E+00  0.00000000E+00  0.00000000E+00
  0.00000000E+00  0.00000000E+00  0.00000000E+00
  0.00000000E+00  0.00000000E+00  0.00000000E+00
  0.00000000E+00  0.00000000E+00  0.00000000E+00
  0.00000000E+00  0.00000000E+00  0.00000000E+00
  0.00000000E+00  0.00000000E+00  0.00000000E+00
  0.00000000E+00  0.00000000E+00  0.00000000E+00
  0.00000000E+00  0.00000000E+00  0.00000000E+00
  0.00000000E+00  0.00000000E+00  0.00000000E+00
  0.00000000E+00  0.00000000E+00  0.00000000E+00
  0.00000000E+00  0.00000000E+00  0.00000000E+00
  0.00000000E+00  0.00000000E+00  0.00000000E+00
  0.00000000E+00  0.00000000E+00  0.00000000E+00
  0.00000000E+00  0.00000000E+00  0.00000000E+00
  0.00000000E+00  0.00000000E+00  0.00000000E+00
  0.00000000E+00  0.00000000E+00  0.00000000E+00
  0.00000000E+00  0.00000000E+00  0.00000000E+00
  0.00000000E+00  0.00000000E+00  0.00000000E+00
  0.00000000E+00  0.00000000E+00  0.00000000E+00
  0.00000000E+00  0.00000000E+00  0.00000000E+00
  0.00000000E+00  0.00000000E+00  0.00000000E+00
  0.00000000E+00  0.00000000E+00  0.00000000E+00
  0.00000000E+00  0.00000000E+00  0.00000000E+00
  0.00000000E+00  0.00000000E+00  0.00000000E+00
  0.00000000E+00  0.00000000E+00  0.00000000E+00
  0.00000000E+00  0.00000000E+00  0.00000000E+00
