title                                   
    1.000000000000000     
     9.7767825560255641   -0.0290580933347929    0.0937511833744350
    -0.0288034466317405    9.8396049454782784    0.0007838661898768
     0.0620173577534806    0.0006649711430835    6.5116526521180047
   Ta   Ti   V    W    Zr
     7     7     7     8     7
Direct
 -0.0024847576190608  0.3369747775497449  0.4949125453186342
  0.8373094367366333  0.1666986517311378  0.2462689641736404
  0.0023513328468676  0.6627711935457399  0.0168042368197146
  0.3293448920328587  0.3403932660368588  0.4994530144569314
  0.6663481481306794  0.6580174441145445  0.4844775918671156
  0.6618025745017206  0.6677526450815405  0.0078430365701978
  0.3274562937934659 -0.0000969087992740  0.5160079276913092
  0.6756621719142309 -0.0069915370781189 -0.0019062203753070
  0.1558754941187896  0.1667563134157718  0.7497283596928477
  0.6699263900209528  0.3449042448634872  0.5087536076644363
 -0.0068886517974485  0.6495705937739371  0.4751121884201033
  0.1585744871656578  0.5070012721706455  0.7513268054771223
  0.4823029731732088  0.8121943312711517  0.7456142000902801
  0.8425268326627675  0.5011437605056950  0.7637088922422092
  0.4919682392077085  0.5170112654686946  0.2524862744040957
  0.4923131397944183  0.1750799036382575  0.7136376313336277
  0.3365242552309022  0.6601030793469810  0.0089250518069404
  0.4884971815150115  0.8126752913127288  0.2639893930881378
  0.1726976547344206  0.8307671900173852  0.7570919129580496
  0.8366615693779166  0.4955488407611193  0.2277189796429611
  0.0011449505672427  0.0175219802257091  0.4951767826323740
  0.4922005785158752  0.5145772082851581  0.7421398947384494
  0.8493500895315073  0.1663598558509196  0.7532159373387396
  0.0023944325801942  0.0037619232263494  0.0052082228428566
 -0.0005994746008558  0.3344039179329260  0.0035467689491688
  0.8395970416988404  0.8349817993012211  0.2417388457574773
  0.1678241361699592  0.5030955660525593  0.2498333052764620
  0.3318132750404224  0.6628746604935621  0.5002609135042489
  0.1568297322556131  0.1652235659119196  0.2558422767203137
  0.6673203389778609 -0.0067359797353244  0.5186350393378962
  0.8572119069072008  0.8309457390971235  0.7410163805074151
  0.6628208581409472  0.3351646942055921 -0.0132812170379275
  0.3463928550750794  0.0000174915127553 -0.0102020392865526
  0.3324198080958258  0.3391246441751857 -0.0032541961976754
  0.5071049804377830  0.1653990929552584  0.2762169866361833
  0.1674048330648037  0.8350082217810573  0.2619517049375232
 
  0.00000000E+00  0.00000000E+00  0.00000000E+00
  0.00000000E+00  0.00000000E+00  0.00000000E+00
  0.00000000E+00  0.00000000E+00  0.00000000E+00
  0.00000000E+00  0.00000000E+00  0.00000000E+00
  0.00000000E+00  0.00000000E+00  0.00000000E+00
  0.00000000E+00  0.00000000E+00  0.00000000E+00
  0.00000000E+00  0.00000000E+00  0.00000000E+00
  0.00000000E+00  0.00000000E+00  0.00000000E+00
  0.00000000E+00  0.00000000E+00  0.00000000E+00
  0.00000000E+00  0.00000000E+00  0.00000000E+00
  0.00000000E+00  0.00000000E+00  0.00000000E+00
  0.00000000E+00  0.00000000E+00  0.00000000E+00
  0.00000000E+00  0.00000000E+00  0.00000000E+00
  0.00000000E+00  0.00000000E+00  0.00000000E+00
  0.00000000E+00  0.00000000E+00  0.00000000E+00
  0.00000000E+00  0.00000000E+00  0.00000000E+00
  0.00000000E+00  0.00000000E+00  0.00000000E+00
  0.00000000E+00  0.00000000E+00  0.00000000E+00
  0.00000000E+00  0.00000000E+00  0.00000000E+00
  0.00000000E+00  0.00000000E+00  0.00000000E+00
  0.00000000E+00  0.00000000E+00  0.00000000E+00
  0.00000000E+00  0.00000000E+00  0.00000000E+00
  0.00000000E+00  0.00000000E+00  0.00000000E+00
  0.00000000E+00  0.00000000E+00  0.00000000E+00
  0.00000000E+00  0.00000000E+00  0.00000000E+00
  0.00000000E+00  0.00000000E+00  0.00000000E+00
  0.00000000E+00  0.00000000E+00  0.00000000E+00
  0.00000000E+00  0.00000000E+00  0.00000000E+00
  0.00000000E+00  0.00000000E+00  0.00000000E+00
  0.00000000E+00  0.00000000E+00  0.00000000E+00
  0.00000000E+00  0.00000000E+00  0.00000000E+00
  0.00000000E+00  0.00000000E+00  0.00000000E+00
  0.00000000E+00  0.00000000E+00  0.00000000E+00
  0.00000000E+00  0.00000000E+00  0.00000000E+00
  0.00000000E+00  0.00000000E+00  0.00000000E+00
  0.00000000E+00  0.00000000E+00  0.00000000E+00
