title                                   
    1.000000000000000     
     9.7524322712183142   -0.0558276923282184   -0.0879947206466215
    -0.0556439122534358   10.1158031600960143    0.0659363450190505
    -0.0584793855449939    0.0442546679085651    6.5623954300962284
   Hf   Mo   Ta   V    Zr
    15     6     2    12     1
Direct
  0.8364460367377470  0.8260065013547320  0.2486499989748673
  0.1660169517068183  0.5015758866585858  0.2559942356243884
  0.8348700721903450  0.5004737820828498  0.7591542899097836
  0.6656116140707238  0.3429416845682017  0.4861393542035990
  0.1587516561700987  0.8182124876101132  0.2566687316494441
  0.3161782639291819 -0.0136538369434370 -0.0304232851853712
  0.4966209452136443  0.1624077518898503  0.2552798675270230
  0.1575667020602125  0.1725814600128111  0.2493727431160425
  0.1597144875603003  0.2027238570127882  0.7084481498558737
  0.0004073912224702 -0.0014111925512083 -0.0512908296168933
  0.8236833674604015  0.1632228401586223  0.2208130895206678
  0.3213096896432055 -0.0180973851818164  0.5330891559639069
  0.5203179540744708  0.1647824107307549  0.7857005248960932
  0.3516588811848748  0.3528846633345193 -0.0090269791433919
  0.6905928551389775 -0.0003250018945808  0.5421845368512969
  0.0000266039864760  0.6625456977279547 -0.0016560443035505
  0.6587944192542526  0.6604706553299108  0.5053084994067311
 -0.0061787465003715  0.3324451025658753 -0.0076047947335332
  0.5044814187427001  0.5153627265507522  0.7525150009227169
  0.8311500683054135  0.5057806316797768  0.2451317813976536
  0.3393349430398169  0.6650219677925973 -0.0054963295657400
  0.8360353311207508  0.8022304440813721  0.7512685349564814
  0.1615797164152855  0.5079922871361767  0.7420712241207649
  0.6767320351907818 -0.0356813983840742 -0.0337031504523802
  0.6580873490636969  0.6547703792385575  0.0084799461640120
  0.3590410216327877  0.3695883562620157  0.5179881175354704
  0.0012610735265752 -0.0069596489494546  0.5147264333746933
 -0.0311502985801911  0.3475439632056821  0.4813019680571739
  0.1600231972161135  0.7946941302387046  0.7451350168517019
  0.8525512528842262  0.1965523386221940  0.7415169604281220
  0.6547208045767950  0.3681752812561703  0.0235293203772531
  0.4951867292049172  0.5214615196268853  0.2599572641212823
  0.3402954610139176  0.6651965917609984  0.5225496889290027
 -0.0008232522282341  0.6559247900807256  0.5048274840995038
  0.5059452608600135  0.8152879277989304  0.7680660854507309
  0.5031587429108039  0.8272703475354627  0.2533334087145803
 
  0.00000000E+00  0.00000000E+00  0.00000000E+00
  0.00000000E+00  0.00000000E+00  0.00000000E+00
  0.00000000E+00  0.00000000E+00  0.00000000E+00
  0.00000000E+00  0.00000000E+00  0.00000000E+00
  0.00000000E+00  0.00000000E+00  0.00000000E+00
  0.00000000E+00  0.00000000E+00  0.00000000E+00
  0.00000000E+00  0.00000000E+00  0.00000000E+00
  0.00000000E+00  0.00000000E+00  0.00000000E+00
  0.00000000E+00  0.00000000E+00  0.00000000E+00
  0.00000000E+00  0.00000000E+00  0.00000000E+00
  0.00000000E+00  0.00000000E+00  0.00000000E+00
  0.00000000E+00  0.00000000E+00  0.00000000E+00
  0.00000000E+00  0.00000000E+00  0.00000000E+00
  0.00000000E+00  0.00000000E+00  0.00000000E+00
  0.00000000E+00  0.00000000E+00  0.00000000E+00
  0.00000000E+00  0.00000000E+00  0.00000000E+00
  0.00000000E+00  0.00000000E+00  0.00000000E+00
  0.00000000E+00  0.00000000E+00  0.00000000E+00
  0.00000000E+00  0.00000000E+00  0.00000000E+00
  0.00000000E+00  0.00000000E+00  0.00000000E+00
  0.00000000E+00  0.00000000E+00  0.00000000E+00
  0.00000000E+00  0.00000000E+00  0.00000000E+00
  0.00000000E+00  0.00000000E+00  0.00000000E+00
  0.00000000E+00  0.00000000E+00  0.00000000E+00
  0.00000000E+00  0.00000000E+00  0.00000000E+00
  0.00000000E+00  0.00000000E+00  0.00000000E+00
  0.00000000E+00  0.00000000E+00  0.00000000E+00
  0.00000000E+00  0.00000000E+00  0.00000000E+00
  0.00000000E+00  0.00000000E+00  0.00000000E+00
  0.00000000E+00  0.00000000E+00  0.00000000E+00
  0.00000000E+00  0.00000000E+00  0.00000000E+00
  0.00000000E+00  0.00000000E+00  0.00000000E+00
  0.00000000E+00  0.00000000E+00  0.00000000E+00
  0.00000000E+00  0.00000000E+00  0.00000000E+00
  0.00000000E+00  0.00000000E+00  0.00000000E+00
  0.00000000E+00  0.00000000E+00  0.00000000E+00
