title                                   
    1.000000000000000     
     9.7200366625865513   -0.0251944843861565    0.0017677426739925
    -0.0252518484513976    9.7008116770236139   -0.0048238768988312
     0.0011525513510495   -0.0032111815310703    6.5001108633600406
   Hf   Ti   V    W    Zr
     3    15     4    11     3
Direct
  0.0108591004983841  0.0086499823748093  0.4955853534272968
 -0.0055229277129321  0.6711800581986601 -0.0149223953900659
  0.6656760045280287  0.6617076789778631  0.0004741173643823
  0.3337786063923223  0.3319900870589915  0.5076990018610588
  0.3424170190708350  0.6647133270766044 -0.0086961594184984
  0.6791610953361646 -0.0023386331153257  0.0129435479977711
 -0.0034733990868153  0.3304218818623581  0.5084294691551819
  0.3181603098722510  0.0093932003302526  0.4981981983724152
  0.8232494259274327  0.8383231546332351  0.2730783431451772
  0.6654249177711045  0.6572065839800701  0.4941521703383052
  0.5044349970998744  0.1686962766526645  0.7436321448322143
  0.8051546079946748  0.1632939601070160  0.7280695321117893
  0.1852377326784437  0.8179496849154230  0.2628088911511645
  0.4990302996393405  0.1662241740511785  0.2564809877615509
  0.0044788991303618  0.0004406287893134 -0.0074025024388758
 -0.0084180926947068  0.6638338204193509  0.5232483724757433
  0.6652458754653380  0.3372424204599696  0.0058811454145088
  0.3195185973965851  0.0020401246278660  0.0041856165418866
  0.6699176700967193 -0.0009794004696165  0.4762512381782759
  0.3429959185058446  0.6586218388429607  0.5152759736776893
  0.6640825303721578  0.3446302028017124  0.4931352105759856
  0.1908888297642413  0.1765717442100578  0.2377532956855495
  0.4998481147782409  0.8376046890457068  0.2581209822812868
  0.3392334423664545  0.3351720899674543 -0.0033870091515606
  0.8262088819114066  0.8450298022184818  0.7275182649670646
  0.4968314268494733  0.4915570879283673  0.7417658515685636
  0.8305737434172507  0.4952060086752211  0.2629869794394407
  0.8170159970933477  0.1640517273861862  0.2626865065109443
  0.4971634583626099  0.4920172654782883  0.2571625692190135
  0.1781691604778796  0.1704943125552683  0.7621352610163165
  0.8227096384310514  0.4842358393751220  0.7363655117712000
  0.1759563638925035  0.8308263799282474  0.7453268044300240
  0.1765781994441339  0.4987185754066612  0.7478476284865051
  0.1701454358820096  0.5089402513389579  0.2620815574329456
  0.5023642626766678  0.8515932116543231  0.7324156938561383
 -0.0050961436286799  0.3247399622562997  0.0007118453516140
 
  0.00000000E+00  0.00000000E+00  0.00000000E+00
  0.00000000E+00  0.00000000E+00  0.00000000E+00
  0.00000000E+00  0.00000000E+00  0.00000000E+00
  0.00000000E+00  0.00000000E+00  0.00000000E+00
  0.00000000E+00  0.00000000E+00  0.00000000E+00
  0.00000000E+00  0.00000000E+00  0.00000000E+00
  0.00000000E+00  0.00000000E+00  0.00000000E+00
  0.00000000E+00  0.00000000E+00  0.00000000E+00
  0.00000000E+00  0.00000000E+00  0.00000000E+00
  0.00000000E+00  0.00000000E+00  0.00000000E+00
  0.00000000E+00  0.00000000E+00  0.00000000E+00
  0.00000000E+00  0.00000000E+00  0.00000000E+00
  0.00000000E+00  0.00000000E+00  0.00000000E+00
  0.00000000E+00  0.00000000E+00  0.00000000E+00
  0.00000000E+00  0.00000000E+00  0.00000000E+00
  0.00000000E+00  0.00000000E+00  0.00000000E+00
  0.00000000E+00  0.00000000E+00  0.00000000E+00
  0.00000000E+00  0.00000000E+00  0.00000000E+00
  0.00000000E+00  0.00000000E+00  0.00000000E+00
  0.00000000E+00  0.00000000E+00  0.00000000E+00
  0.00000000E+00  0.00000000E+00  0.00000000E+00
  0.00000000E+00  0.00000000E+00  0.00000000E+00
  0.00000000E+00  0.00000000E+00  0.00000000E+00
  0.00000000E+00  0.00000000E+00  0.00000000E+00
  0.00000000E+00  0.00000000E+00  0.00000000E+00
  0.00000000E+00  0.00000000E+00  0.00000000E+00
  0.00000000E+00  0.00000000E+00  0.00000000E+00
  0.00000000E+00  0.00000000E+00  0.00000000E+00
  0.00000000E+00  0.00000000E+00  0.00000000E+00
  0.00000000E+00  0.00000000E+00  0.00000000E+00
  0.00000000E+00  0.00000000E+00  0.00000000E+00
  0.00000000E+00  0.00000000E+00  0.00000000E+00
  0.00000000E+00  0.00000000E+00  0.00000000E+00
  0.00000000E+00  0.00000000E+00  0.00000000E+00
  0.00000000E+00  0.00000000E+00  0.00000000E+00
  0.00000000E+00  0.00000000E+00  0.00000000E+00
