title                                   
    1.000000000000000     
     9.6768169106045256   -0.0136309558296734   -0.0087826155557179
    -0.0136748609411592    9.6542124381171792    0.0025269637021123
    -0.0058660768391736    0.0016783118459675    6.4463327396622683
   Hf   Ta   V    W 
     3    10     4    19
Direct
  0.8271703784396587  0.5000151529452810  0.2512425732985295
  0.5020525574641035  0.4969573410177265  0.2500238759611239
  0.8330450015120651  0.8354989493693586  0.7472242049220510
  0.1702862706502336  0.8379359912025318  0.2479543384745517
 -0.0001217710394744  0.3288347027384557  0.5010629531853709
  0.0014246976342529  0.0082388457678553  0.4954241070278788
  0.0062154766641696  0.6629045355446297 -0.0043161710509283
  0.3315647609651352  0.6675606887223167  0.5077172389892377
 -0.0003230862536765  0.3305838772877115 -0.0026086791524428
  0.8318676947654432  0.8335902059631835  0.2507291989615462
  0.4974027530133345  0.8354264429028937  0.2501446697376445
  0.1740616106122680  0.1630340256406645  0.7524464310971746
  0.6628066642461788  0.0074648424113280 -0.0005682569474008
  0.8290557593632986  0.1676659731635916  0.7481004143459516
  0.3367525319607159  0.0013939708424816 -0.0003769869751156
  0.8297592704629544  0.1681135773930635  0.2497036668432585
  0.3340448892441202  0.0005671739073572  0.5018099883437060
  0.3305296096117103  0.6675013603991653 -0.0055236168308485
  0.4988222637595663  0.8363008988711407  0.7502064557264209
  0.4981147540789081  0.1663683384950944  0.7487471600896858
  0.0025478107692464  0.0057863097278550  0.0034897345873376
  0.3329044406224493  0.3295224321002769 -0.0009069992638740
  0.3329111041992150  0.3297773534761598  0.5031763911877000
  0.5007234983491420  0.4972464604700956  0.7520432215338206
  0.6612874033180413  0.6685380942575662  0.5079217264705662
  0.1693047715287423  0.8371927564531830  0.7516943326771098
  0.6679963207677053  0.3252722309823988  0.5079267345967197
  0.1717293058402140  0.1637367955832837  0.2477563766778393
  0.1695993408313181  0.4985846587001469  0.2504218212537822
  0.6672079010796551  0.3245285626631004 -0.0070865469592814
  0.1699296165620741  0.4973554433658607  0.7506808454699824
  0.4982729878892338  0.1663724591630573  0.2522306058935181
  0.8297581046697678  0.5000581667182102  0.7477401818373172
  0.6619494018058256  0.6689376482463811 -0.0074339443628636
  0.6621744903975513  0.0066427188003752  0.4986671219827948
  0.0071714142148540  0.6644910147062179  0.5025348303701386
 
  0.00000000E+00  0.00000000E+00  0.00000000E+00
  0.00000000E+00  0.00000000E+00  0.00000000E+00
  0.00000000E+00  0.00000000E+00  0.00000000E+00
  0.00000000E+00  0.00000000E+00  0.00000000E+00
  0.00000000E+00  0.00000000E+00  0.00000000E+00
  0.00000000E+00  0.00000000E+00  0.00000000E+00
  0.00000000E+00  0.00000000E+00  0.00000000E+00
  0.00000000E+00  0.00000000E+00  0.00000000E+00
  0.00000000E+00  0.00000000E+00  0.00000000E+00
  0.00000000E+00  0.00000000E+00  0.00000000E+00
  0.00000000E+00  0.00000000E+00  0.00000000E+00
  0.00000000E+00  0.00000000E+00  0.00000000E+00
  0.00000000E+00  0.00000000E+00  0.00000000E+00
  0.00000000E+00  0.00000000E+00  0.00000000E+00
  0.00000000E+00  0.00000000E+00  0.00000000E+00
  0.00000000E+00  0.00000000E+00  0.00000000E+00
  0.00000000E+00  0.00000000E+00  0.00000000E+00
  0.00000000E+00  0.00000000E+00  0.00000000E+00
  0.00000000E+00  0.00000000E+00  0.00000000E+00
  0.00000000E+00  0.00000000E+00  0.00000000E+00
  0.00000000E+00  0.00000000E+00  0.00000000E+00
  0.00000000E+00  0.00000000E+00  0.00000000E+00
  0.00000000E+00  0.00000000E+00  0.00000000E+00
  0.00000000E+00  0.00000000E+00  0.00000000E+00
  0.00000000E+00  0.00000000E+00  0.00000000E+00
  0.00000000E+00  0.00000000E+00  0.00000000E+00
  0.00000000E+00  0.00000000E+00  0.00000000E+00
  0.00000000E+00  0.00000000E+00  0.00000000E+00
  0.00000000E+00  0.00000000E+00  0.00000000E+00
  0.00000000E+00  0.00000000E+00  0.00000000E+00
  0.00000000E+00  0.00000000E+00  0.00000000E+00
  0.00000000E+00  0.00000000E+00  0.00000000E+00
  0.00000000E+00  0.00000000E+00  0.00000000E+00
  0.00000000E+00  0.00000000E+00  0.00000000E+00
  0.00000000E+00  0.00000000E+00  0.00000000E+00
  0.00000000E+00  0.00000000E+00  0.00000000E+00
