title                                   
    1.000000000000000     
     9.8054021810595362    0.0066179659293024    0.0246457867769526
     0.0066535130651375    9.7923129460391554   -0.0069877247138014
     0.0164439340832003   -0.0046727722846048    6.5078795098365658
   Mo   Nb   Ta   W    Zr
    11    15     3     4     3
Direct
  0.3347919749050575  0.6605494021207904  0.5020127156917140
  0.3320173810660023 -0.0007151530942241  0.5052328831589085
 -0.0016710527094510  0.0016922108307982 -0.0007408294057664
  0.1676735335377804  0.8306460526243168  0.2527419654736009
  0.0037739643395159  0.3308809556939241  0.4988563733106460
  0.3338155282600288  0.3359517679623139 -0.0008208713424847
  0.3343623986615968  0.6613760997541277  0.0014075396644133
  0.4947700958621510  0.5020876995969676  0.7477105031573833
  0.6611710025346009  0.6670754521800402  0.0013002681507387
  0.1729877896188198  0.4984309376285142  0.7494200171945555
  0.6607504449509812  0.6661650597533284  0.4961952810542979
  0.5013491354638119  0.8240901123023059  0.2557127263770279
  0.0093720675481283  0.6724053448565819  0.4944779192787289
  0.8323835898162770  0.5059496219722465  0.2506336596561415
  0.6676759925554491  0.0026362526544393  0.5017391488239085
  0.1728298426416364  0.4990317336919696  0.2516970338798932
  0.6594425541523167  0.3320810216119728  0.5005918175360328
  0.1691123007823165  0.8306906266837878  0.7504147426850992
  0.8385698454270697  0.1661100005907452  0.2506604033834174
  0.1660346399636666  0.1695728501103822  0.7484408257148587
  0.0080060160359127  0.6690489422866278  0.0019399436500295
  0.8317956894133905  0.8332827552361574  0.2455619974718443
  0.4929277061196377  0.1682289935752947  0.2586575560088349
  0.5011163820858691  0.8248380858651216  0.7468265625758262
  0.1656553654028877  0.1708348652103382  0.2560698499112829
  0.8319095427018586  0.8332281963948549  0.7506917216008240
  0.0002015295521374 -0.0011001062462704  0.4994925069262627
  0.0023820686673302  0.3342118163131835 -0.0029184620159148
  0.6646310294781620  0.0040222285161729 -0.0040773282854879
  0.4943115579192478  0.5037142329329034  0.2530310526371230
  0.8385359874319894  0.1656019101829940  0.7446666447589990
  0.3350113141264307  0.3369099919314383  0.5055294440275848
  0.4937060517951323  0.1672968409772528  0.7440475638830154
  0.8335120906042576  0.5058566187777513  0.7419099492796540
  0.6620902237653015  0.3310020991605450 -0.0036380597302294
  0.3329944155227004 -0.0036855206396943  0.0045249338572373
 
  0.00000000E+00  0.00000000E+00  0.00000000E+00
  0.00000000E+00  0.00000000E+00  0.00000000E+00
  0.00000000E+00  0.00000000E+00  0.00000000E+00
  0.00000000E+00  0.00000000E+00  0.00000000E+00
  0.00000000E+00  0.00000000E+00  0.00000000E+00
  0.00000000E+00  0.00000000E+00  0.00000000E+00
  0.00000000E+00  0.00000000E+00  0.00000000E+00
  0.00000000E+00  0.00000000E+00  0.00000000E+00
  0.00000000E+00  0.00000000E+00  0.00000000E+00
  0.00000000E+00  0.00000000E+00  0.00000000E+00
  0.00000000E+00  0.00000000E+00  0.00000000E+00
  0.00000000E+00  0.00000000E+00  0.00000000E+00
  0.00000000E+00  0.00000000E+00  0.00000000E+00
  0.00000000E+00  0.00000000E+00  0.00000000E+00
  0.00000000E+00  0.00000000E+00  0.00000000E+00
  0.00000000E+00  0.00000000E+00  0.00000000E+00
  0.00000000E+00  0.00000000E+00  0.00000000E+00
  0.00000000E+00  0.00000000E+00  0.00000000E+00
  0.00000000E+00  0.00000000E+00  0.00000000E+00
  0.00000000E+00  0.00000000E+00  0.00000000E+00
  0.00000000E+00  0.00000000E+00  0.00000000E+00
  0.00000000E+00  0.00000000E+00  0.00000000E+00
  0.00000000E+00  0.00000000E+00  0.00000000E+00
  0.00000000E+00  0.00000000E+00  0.00000000E+00
  0.00000000E+00  0.00000000E+00  0.00000000E+00
  0.00000000E+00  0.00000000E+00  0.00000000E+00
  0.00000000E+00  0.00000000E+00  0.00000000E+00
  0.00000000E+00  0.00000000E+00  0.00000000E+00
  0.00000000E+00  0.00000000E+00  0.00000000E+00
  0.00000000E+00  0.00000000E+00  0.00000000E+00
  0.00000000E+00  0.00000000E+00  0.00000000E+00
  0.00000000E+00  0.00000000E+00  0.00000000E+00
  0.00000000E+00  0.00000000E+00  0.00000000E+00
  0.00000000E+00  0.00000000E+00  0.00000000E+00
  0.00000000E+00  0.00000000E+00  0.00000000E+00
  0.00000000E+00  0.00000000E+00  0.00000000E+00
