title                                   
    1.000000000000000     
     9.2103933090114296    0.0046737716436900   -0.0024299236477342
     0.0046411470473219    9.1587328771264023   -0.0173139542353288
    -0.0016262383045254   -0.0114609887212678    6.1377312551938950
   Cr   Hf   Nb   V 
    19     3    10     4
Direct
  0.4995060017244078  0.8422455110928846  0.2389584564371982
  0.1579567540227529  0.5055562098161693  0.7355275597584900
  0.0110730215908188 -0.0060478578685842  0.4893272124365591
  0.6551346392960166  0.3274230962324652  0.0040186357465701
  0.6567435743796074  0.0032220169250136  0.0128680972934841
  0.8432526681934550  0.4988258587210406  0.7587741272592196
  0.0064664587232529  0.6604203081049124 -0.0118809282820840
  0.3286366353359410  0.3386911328798643  0.5049491670906417
  0.0132222141490027  0.6622837767539377  0.5013878837087620
  0.3213367069042429  0.6718531533140409  0.5035875651020708
  0.8408124665900010  0.1636686152710781  0.2438728725847273
  0.4989563027509185  0.1619875995950450  0.2377925144598325
  0.3388797202715203  0.0025813539992318  0.0065269574519846
  0.0019942538676947  0.3375391814623140  0.0072927636082578
  0.5000407403740121  0.1642916219379522  0.7635196429672305
  0.0141621241083781 -0.0092309858085564  0.0143458067814571
  0.1654959503239741  0.8270543012606372  0.7385322678280707
  0.6667180464015560  0.6640142539408077 -0.0069514130823922
  0.1645786758456791  0.8354610116107350  0.2493541666666494
  0.8404888181742308  0.1624224531607870  0.7763853038457555
  0.3272666817952164  0.3320089283270847  0.0002097928711223
  0.6614421591983709  0.3293601897815396  0.5041493968051649
  0.1615240406179937  0.1599416008301755  0.7475934098925775
  0.8475690982139105  0.8283183815096630  0.7555110680382919
  0.8436996654720742  0.8330265096309788  0.2380005362680349
  0.6649689947578323  0.0055470893400345  0.4900226249960737
  0.3343138942597383  0.0003473598588329  0.4880804504110790
  0.4998064162957829  0.8352670427393233  0.7563922896188099
  0.8400415821611821  0.4971783086624001  0.2339770807683773
  0.3211741639222969  0.6753395343916402 -0.0022310840552750
  0.6692746318430618  0.6648838186081671  0.4998519407467147
  0.4934715611988871  0.5094911993681162  0.2501556971101367
  0.1571840422178277  0.5075097681571048  0.2636200233161002
  0.0020284702155041  0.3404735456466717  0.5022975680688962
  0.1561577754374192  0.1616306500761114  0.2540332395924199
  0.4946210493654384  0.5054134606703786  0.7501473058889918
 
  0.00000000E+00  0.00000000E+00  0.00000000E+00
  0.00000000E+00  0.00000000E+00  0.00000000E+00
  0.00000000E+00  0.00000000E+00  0.00000000E+00
  0.00000000E+00  0.00000000E+00  0.00000000E+00
  0.00000000E+00  0.00000000E+00  0.00000000E+00
  0.00000000E+00  0.00000000E+00  0.00000000E+00
  0.00000000E+00  0.00000000E+00  0.00000000E+00
  0.00000000E+00  0.00000000E+00  0.00000000E+00
  0.00000000E+00  0.00000000E+00  0.00000000E+00
  0.00000000E+00  0.00000000E+00  0.00000000E+00
  0.00000000E+00  0.00000000E+00  0.00000000E+00
  0.00000000E+00  0.00000000E+00  0.00000000E+00
  0.00000000E+00  0.00000000E+00  0.00000000E+00
  0.00000000E+00  0.00000000E+00  0.00000000E+00
  0.00000000E+00  0.00000000E+00  0.00000000E+00
  0.00000000E+00  0.00000000E+00  0.00000000E+00
  0.00000000E+00  0.00000000E+00  0.00000000E+00
  0.00000000E+00  0.00000000E+00  0.00000000E+00
  0.00000000E+00  0.00000000E+00  0.00000000E+00
  0.00000000E+00  0.00000000E+00  0.00000000E+00
  0.00000000E+00  0.00000000E+00  0.00000000E+00
  0.00000000E+00  0.00000000E+00  0.00000000E+00
  0.00000000E+00  0.00000000E+00  0.00000000E+00
  0.00000000E+00  0.00000000E+00  0.00000000E+00
  0.00000000E+00  0.00000000E+00  0.00000000E+00
  0.00000000E+00  0.00000000E+00  0.00000000E+00
  0.00000000E+00  0.00000000E+00  0.00000000E+00
  0.00000000E+00  0.00000000E+00  0.00000000E+00
  0.00000000E+00  0.00000000E+00  0.00000000E+00
  0.00000000E+00  0.00000000E+00  0.00000000E+00
  0.00000000E+00  0.00000000E+00  0.00000000E+00
  0.00000000E+00  0.00000000E+00  0.00000000E+00
  0.00000000E+00  0.00000000E+00  0.00000000E+00
  0.00000000E+00  0.00000000E+00  0.00000000E+00
  0.00000000E+00  0.00000000E+00  0.00000000E+00
  0.00000000E+00  0.00000000E+00  0.00000000E+00
