title                                   
    1.000000000000000     
     9.6189360973016473   -0.0859635609688814   -0.0312236958923602
    -0.0862644317673679    9.5812081249378664    0.1010250494502942
    -0.0202580977629135    0.0673790530084071    6.3374853511845437
   Cr   Nb   Ta   Ti
     9     9     9     9
Direct
 -0.0042662633431909  0.3433167598442072  0.4936909022750693
 -0.0064564406455209  0.6627345666019322  0.0007721326335295
  0.3415594374383311  0.6576098570683057  0.5046846994608088
  0.6749889735441343 -0.0122032919980462  0.0133554812947091
  0.4965481144765721  0.5058896303819630  0.2545446257180247
  0.8218548321445958  0.8392835480468688  0.2496479350381213
  0.6711984869749859 -0.0123947223888311  0.4935927242085356
  0.8362551303261637  0.5037372832960940  0.7543263720152924
  0.4970583511828035  0.5071117561239219  0.7470747917216084
 -0.0067757249436103 -0.0051336483281589  0.0051957120310515
  0.1676645367674308  0.5048747540109815  0.7389960311511125
 -0.0090433981274376 -0.0090762320280361  0.4932673200391986
  0.3482014063684261  0.3437711240410777 -0.0058774001831061
  0.3300752560063502  0.0028202374389217  0.5000397728184426
  0.1653176397899486  0.8221330835238502  0.2524901988976326
  0.8236675809536629  0.1618713186673028  0.2501717744760412
  0.3305466075881897  0.0040890290597268  0.0004971897953369
  0.8438566755435507  0.4997681523913099  0.2528129632560613
  0.5050806789455546  0.8387673269202470  0.2581750192356809
  0.5058051180943277  0.8389293969910510  0.7503025032797941
  0.6679942109165552  0.6583079528942773  0.5082130136904658
  0.1629889193862863  0.8228135189975895  0.7565729280734411
  0.1652610303930988  0.5021880270447506  0.2556265937846549
  0.6650341334149737  0.6590230953218895  0.0084798070219266
  0.6668377087734408  0.3455849237200731 -0.0157290153125905
  0.1622603924138214  0.1767365573884951  0.2504621617672111
 -0.0097824472165750  0.3404083606637707 -0.0186421840487937
  0.1546131328352945  0.1757708845911768  0.7332620110494579
  0.8259368226183234  0.8382543985083784  0.7647071271037125
 -0.0165849026372272  0.6687907417222999  0.5083518334260519
  0.5151530458512656  0.1534733290311339  0.2521100117487450
  0.8247070457441497  0.1595689837161799  0.7378388544207931
  0.3557837126239787  0.3453729589050846  0.4974155395004370
  0.3471773893717616  0.6560263927738813  0.0047156573136730
  0.5224396085607826  0.1490485267652777  0.7461635165779789
  0.6570431978648033  0.3507314182910518  0.5026913947198898
 
  0.00000000E+00  0.00000000E+00  0.00000000E+00
  0.00000000E+00  0.00000000E+00  0.00000000E+00
  0.00000000E+00  0.00000000E+00  0.00000000E+00
  0.00000000E+00  0.00000000E+00  0.00000000E+00
  0.00000000E+00  0.00000000E+00  0.00000000E+00
  0.00000000E+00  0.00000000E+00  0.00000000E+00
  0.00000000E+00  0.00000000E+00  0.00000000E+00
  0.00000000E+00  0.00000000E+00  0.00000000E+00
  0.00000000E+00  0.00000000E+00  0.00000000E+00
  0.00000000E+00  0.00000000E+00  0.00000000E+00
  0.00000000E+00  0.00000000E+00  0.00000000E+00
  0.00000000E+00  0.00000000E+00  0.00000000E+00
  0.00000000E+00  0.00000000E+00  0.00000000E+00
  0.00000000E+00  0.00000000E+00  0.00000000E+00
  0.00000000E+00  0.00000000E+00  0.00000000E+00
  0.00000000E+00  0.00000000E+00  0.00000000E+00
  0.00000000E+00  0.00000000E+00  0.00000000E+00
  0.00000000E+00  0.00000000E+00  0.00000000E+00
  0.00000000E+00  0.00000000E+00  0.00000000E+00
  0.00000000E+00  0.00000000E+00  0.00000000E+00
  0.00000000E+00  0.00000000E+00  0.00000000E+00
  0.00000000E+00  0.00000000E+00  0.00000000E+00
  0.00000000E+00  0.00000000E+00  0.00000000E+00
  0.00000000E+00  0.00000000E+00  0.00000000E+00
  0.00000000E+00  0.00000000E+00  0.00000000E+00
  0.00000000E+00  0.00000000E+00  0.00000000E+00
  0.00000000E+00  0.00000000E+00  0.00000000E+00
  0.00000000E+00  0.00000000E+00  0.00000000E+00
  0.00000000E+00  0.00000000E+00  0.00000000E+00
  0.00000000E+00  0.00000000E+00  0.00000000E+00
  0.00000000E+00  0.00000000E+00  0.00000000E+00
  0.00000000E+00  0.00000000E+00  0.00000000E+00
  0.00000000E+00  0.00000000E+00  0.00000000E+00
  0.00000000E+00  0.00000000E+00  0.00000000E+00
  0.00000000E+00  0.00000000E+00  0.00000000E+00
  0.00000000E+00  0.00000000E+00  0.00000000E+00
