title                                   
    1.000000000000000     
     9.7198135595240540    0.0070138292088553    0.0080696045875925
     0.0070021152103954    9.9045028409576545    0.0244075636619921
     0.0053588162209503    0.0171955643607234    6.4561525136808422
   Hf   Ta   V    Zr
    10     4    19     3
Direct
  0.6796893828282163  0.0159956700831675 -0.0060161435967922
  0.8310083858235877  0.8092777331033622  0.7526922507720742
  0.8370668237521193  0.8025092594303205  0.2497857399370106
  0.1649730535125428  0.8114621238936170  0.7315285027200792
  0.6782163782550172  0.0224956010020252  0.5121298518125138
  0.4938485004596809  0.8287372742967246  0.2586047125451446
  0.3268758586108048  0.0032114350871534 -0.0371116428192431
  0.1680844942505108  0.1757650222830010  0.2431472210261227
  0.3247460699972446  0.3433819529804756  0.5343559630381243
  0.4818519540636505  0.1685906032730395  0.2656912370464748
  0.1687683754208673  0.4951159132522037  0.2380676548369415
  0.4991235156654559  0.5114602266816031  0.7556602019913665
 -0.0092648166745558  0.0095296374194437 -0.0015121456663280
  0.5028569865173907  0.8185681715587377  0.7406883884323645
  0.3329133368083381  0.6511644930706280  0.4872974711648222
  0.8463228988186815  0.4962421732395273  0.2542307275606159
  0.1614026941832293  0.5048387203735444  0.7650969976668190
  0.6518579633368959  0.6325324322577981  0.4712644562410366
  0.0205685181942859  0.6425665773487516  0.4712912913192967
  0.0006429067528422  0.3331565970208135  0.5083504409861442
  0.8504606066077717  0.2065456887537896  0.2629386116260159
  0.6454848192115443  0.6471154175351127  0.0192172184039302
  0.1495092907423206  0.1840374632515616  0.7700681250837406
 -0.0018065337671100  0.3362619488818245 -0.0048448114658382
  0.3305354066235569  0.6600570006556675  0.0046431519521250
  0.1622398136275409  0.8065598612506376  0.2433182596310395
  0.3238963793515265  0.3429038062209823 -0.0257809402971907
  0.4978844671531699  0.1771123636226708  0.7333224635118114
  0.3409868435790642  0.0030318560813002  0.5359040346523147
  0.0219195722159978  0.6498752279049301  0.0156241003921480
  0.4891221121050299  0.5167839570143842  0.2468250630397294
  0.6752272549575534  0.3346509752735309  0.5005182972418384
  0.8511057777525750  0.2036905544999838  0.7461494406420406
  0.8392999193859939  0.5061022941641025  0.7434775681258446
 -0.0047692230700838  0.0115412464352411  0.5010353485641252
  0.6673502129467433  0.3371287207983424  0.0123408918817382
 
  0.00000000E+00  0.00000000E+00  0.00000000E+00
  0.00000000E+00  0.00000000E+00  0.00000000E+00
  0.00000000E+00  0.00000000E+00  0.00000000E+00
  0.00000000E+00  0.00000000E+00  0.00000000E+00
  0.00000000E+00  0.00000000E+00  0.00000000E+00
  0.00000000E+00  0.00000000E+00  0.00000000E+00
  0.00000000E+00  0.00000000E+00  0.00000000E+00
  0.00000000E+00  0.00000000E+00  0.00000000E+00
  0.00000000E+00  0.00000000E+00  0.00000000E+00
  0.00000000E+00  0.00000000E+00  0.00000000E+00
  0.00000000E+00  0.00000000E+00  0.00000000E+00
  0.00000000E+00  0.00000000E+00  0.00000000E+00
  0.00000000E+00  0.00000000E+00  0.00000000E+00
  0.00000000E+00  0.00000000E+00  0.00000000E+00
  0.00000000E+00  0.00000000E+00  0.00000000E+00
  0.00000000E+00  0.00000000E+00  0.00000000E+00
  0.00000000E+00  0.00000000E+00  0.00000000E+00
  0.00000000E+00  0.00000000E+00  0.00000000E+00
  0.00000000E+00  0.00000000E+00  0.00000000E+00
  0.00000000E+00  0.00000000E+00  0.00000000E+00
  0.00000000E+00  0.00000000E+00  0.00000000E+00
  0.00000000E+00  0.00000000E+00  0.00000000E+00
  0.00000000E+00  0.00000000E+00  0.00000000E+00
  0.00000000E+00  0.00000000E+00  0.00000000E+00
  0.00000000E+00  0.00000000E+00  0.00000000E+00
  0.00000000E+00  0.00000000E+00  0.00000000E+00
  0.00000000E+00  0.00000000E+00  0.00000000E+00
  0.00000000E+00  0.00000000E+00  0.00000000E+00
  0.00000000E+00  0.00000000E+00  0.00000000E+00
  0.00000000E+00  0.00000000E+00  0.00000000E+00
  0.00000000E+00  0.00000000E+00  0.00000000E+00
  0.00000000E+00  0.00000000E+00  0.00000000E+00
  0.00000000E+00  0.00000000E+00  0.00000000E+00
  0.00000000E+00  0.00000000E+00  0.00000000E+00
  0.00000000E+00  0.00000000E+00  0.00000000E+00
  0.00000000E+00  0.00000000E+00  0.00000000E+00
