title                                   
    1.000000000000000     
    10.1539862437193005   -0.0048980356249022   -0.0126383048932450
    -0.0050561184891978   10.3907497702404044   -0.0037901103663827
    -0.0084424075716460   -0.0024897758912306    6.9253579553967164
   Hf   Ta   V    Zr
    14    11     4     7
Direct
  0.0015804175655685  0.6629843653452514 -0.0257398322716639
  0.6707488885650612 -0.0201028918181215  0.0106458442442347
  0.4873941661310614  0.5012648055274841  0.2630535560466375
  0.0011208724019624  0.3484874806453592 -0.0025262286015475
  0.3298901389645820  0.6638458221541422 -0.0210409133534923
  0.6818855747449760  0.3498224790796229  0.0258590854658253
  0.3117759392452802  0.3554357439384022 -0.0255863749173573
  0.6707237944638571 -0.0077756010580300  0.4961811033057169
  0.6733528538643140  0.6753839671193967 -0.0027566497765450
  0.4888735316317812  0.1626611397961191  0.2436983099189427
 -0.0225343225164586 -0.0261673943101760 -0.0108882890118849
  0.1728475175226067  0.1406397590807080  0.7453766211231014
  0.6781239913214636  0.3371380464188474  0.4768129288282199
  0.1608826332096881  0.5206599544107389  0.2807254441189848
 -0.0247857076421467 -0.0032468020535209  0.5047339275025303
  0.8491430862634799  0.1561010985233941  0.2409548369531123
  0.8476411362641960  0.5258279308923847  0.2707399607584849
  0.4904726271635684  0.8328659316853467  0.2661827466322439
  0.8237678094221211  0.5112459071622361  0.7316151921604366
  0.3434434838898041  0.6696079453381139  0.5206025828063975
  0.8485414527454799  0.8113825955654813  0.2799866902264860
  0.5151229271567973  0.5082554905168662  0.7373644815965812
  0.4963804112806526  0.8349422109978363  0.7382397070361750
  0.3470081427136815 -0.0221791312438657 -0.0004070426603907
  0.6681699636076216  0.6734251851150812  0.5068726499237279
  0.3640146170750417 -0.0124778569608636  0.5001880258689508
  0.8410927365979098  0.8130042924474552  0.7175080178450322
  0.1539007311256750  0.5274654817979124  0.7071734590910270
 -0.0127163874899667  0.6662753530642238  0.5294694035357133
  0.1723779008650138  0.8381278676167230  0.2599777715165177
  0.3198953427013849  0.3453811099708096  0.5304860452230460
  0.1672689571161227  0.8402249418450436  0.7271210852273947
 -0.0017874916898942  0.3344286435979977  0.5038051258588965
  0.1651631844751602  0.1560266379483343  0.2491044863003867
  0.8232193424786868  0.1709499677923168  0.7642516754921852
  0.4959997367638670  0.1580875220509486  0.7602145659858939
 
  0.00000000E+00  0.00000000E+00  0.00000000E+00
  0.00000000E+00  0.00000000E+00  0.00000000E+00
  0.00000000E+00  0.00000000E+00  0.00000000E+00
  0.00000000E+00  0.00000000E+00  0.00000000E+00
  0.00000000E+00  0.00000000E+00  0.00000000E+00
  0.00000000E+00  0.00000000E+00  0.00000000E+00
  0.00000000E+00  0.00000000E+00  0.00000000E+00
  0.00000000E+00  0.00000000E+00  0.00000000E+00
  0.00000000E+00  0.00000000E+00  0.00000000E+00
  0.00000000E+00  0.00000000E+00  0.00000000E+00
  0.00000000E+00  0.00000000E+00  0.00000000E+00
  0.00000000E+00  0.00000000E+00  0.00000000E+00
  0.00000000E+00  0.00000000E+00  0.00000000E+00
  0.00000000E+00  0.00000000E+00  0.00000000E+00
  0.00000000E+00  0.00000000E+00  0.00000000E+00
  0.00000000E+00  0.00000000E+00  0.00000000E+00
  0.00000000E+00  0.00000000E+00  0.00000000E+00
  0.00000000E+00  0.00000000E+00  0.00000000E+00
  0.00000000E+00  0.00000000E+00  0.00000000E+00
  0.00000000E+00  0.00000000E+00  0.00000000E+00
  0.00000000E+00  0.00000000E+00  0.00000000E+00
  0.00000000E+00  0.00000000E+00  0.00000000E+00
  0.00000000E+00  0.00000000E+00  0.00000000E+00
  0.00000000E+00  0.00000000E+00  0.00000000E+00
  0.00000000E+00  0.00000000E+00  0.00000000E+00
  0.00000000E+00  0.00000000E+00  0.00000000E+00
  0.00000000E+00  0.00000000E+00  0.00000000E+00
  0.00000000E+00  0.00000000E+00  0.00000000E+00
  0.00000000E+00  0.00000000E+00  0.00000000E+00
  0.00000000E+00  0.00000000E+00  0.00000000E+00
  0.00000000E+00  0.00000000E+00  0.00000000E+00
  0.00000000E+00  0.00000000E+00  0.00000000E+00
  0.00000000E+00  0.00000000E+00  0.00000000E+00
  0.00000000E+00  0.00000000E+00  0.00000000E+00
  0.00000000E+00  0.00000000E+00  0.00000000E+00
  0.00000000E+00  0.00000000E+00  0.00000000E+00
