title                                   
    1.000000000000000     
     9.6368294836642612    0.0486996848291725   -0.0210358842223746
     0.0486741433842499    9.6118886931605729   -0.0064092601360373
    -0.0139650344769618   -0.0044054910809751    6.4341260874067441
   Mo   Nb   Ta   Ti   V 
     7     7     8     7     7
Direct
  0.6652639052872310  0.0034542597442706 -0.0076029705439184
  0.8391247453429213  0.4960069475905374  0.2479032514327722
  0.3313279866140598  0.6671501742573104  0.0029739807009312
  0.0008559687651458 -0.0005746865290418  0.0010176599583358
  0.1642646569382488  0.1666282392275499  0.7489188523606964
  0.4978318702349234  0.4995745920344087  0.7499890420483120
 -0.0021983871122347  0.0027879618012633  0.5045236063903069
  0.8364935816083329  0.8364638585168794  0.7537276548726206
  0.3317702291737154  0.0014783948536022  0.5069711225238847
  0.1617403432712947  0.1665623352285233  0.2541003738581143
 -0.0041924337586337  0.6638046482158281  0.4939978314111997
  0.6711478678503378  0.3370842345650135 -0.0174010595169219
  0.3261320492425315  0.0078450682740555  0.0010511811364333
  0.3386191492453794  0.3334236349916153  0.5080601605653685
  0.1644475651087817  0.5046914807491962  0.7522879176154454
  0.6675103240377306  0.6565039064206795  0.5034041016908791
  0.3334157570489793  0.6739635913755138  0.5028837434773539
  0.5048068862664543  0.1701229232480879  0.2409332559502040
  0.1697581925535261  0.5023652296102481  0.2433036627951677
  0.5004010244086925  0.8347837661242808  0.2409095961331333
  0.4954477831984300  0.4979296359907678  0.2406286938730052
 -0.0015272193568728  0.3321236714916521 -0.0093724473453838
  0.8359183005201022  0.8407693911888523  0.2468194870895547
  0.6636404177974965  0.0122537432169508  0.5149281263990664
  0.8353988743837475  0.1534826335851810  0.2443530537772203
  0.1570993980284401  0.8325052530326456  0.7655840563631207
  0.6762870153683357  0.3334134123814594  0.5054194239326543
  0.6785541469124415  0.6552255894634420 -0.0048153130318778
  0.5001708119579348  0.8387778742485562  0.7699996615412324
  0.1549271720904680  0.8339066131493007  0.2475801815938415
 -0.0058668769534961  0.3342417694413518  0.5010996254967496
  0.5025808671059839  0.1652920429456066  0.7612363921424756
  0.3367629077392375  0.3301000671815146 -0.0119695824956204
 -0.0135943839071734  0.6579378663391608  0.0049151244130941
  0.8453857274398666  0.4964120996657385  0.7419881656404340
  0.8402937755476396  0.1615077763779978  0.7496523857501154
 
  0.00000000E+00  0.00000000E+00  0.00000000E+00
  0.00000000E+00  0.00000000E+00  0.00000000E+00
  0.00000000E+00  0.00000000E+00  0.00000000E+00
  0.00000000E+00  0.00000000E+00  0.00000000E+00
  0.00000000E+00  0.00000000E+00  0.00000000E+00
  0.00000000E+00  0.00000000E+00  0.00000000E+00
  0.00000000E+00  0.00000000E+00  0.00000000E+00
  0.00000000E+00  0.00000000E+00  0.00000000E+00
  0.00000000E+00  0.00000000E+00  0.00000000E+00
  0.00000000E+00  0.00000000E+00  0.00000000E+00
  0.00000000E+00  0.00000000E+00  0.00000000E+00
  0.00000000E+00  0.00000000E+00  0.00000000E+00
  0.00000000E+00  0.00000000E+00  0.00000000E+00
  0.00000000E+00  0.00000000E+00  0.00000000E+00
  0.00000000E+00  0.00000000E+00  0.00000000E+00
  0.00000000E+00  0.00000000E+00  0.00000000E+00
  0.00000000E+00  0.00000000E+00  0.00000000E+00
  0.00000000E+00  0.00000000E+00  0.00000000E+00
  0.00000000E+00  0.00000000E+00  0.00000000E+00
  0.00000000E+00  0.00000000E+00  0.00000000E+00
  0.00000000E+00  0.00000000E+00  0.00000000E+00
  0.00000000E+00  0.00000000E+00  0.00000000E+00
  0.00000000E+00  0.00000000E+00  0.00000000E+00
  0.00000000E+00  0.00000000E+00  0.00000000E+00
  0.00000000E+00  0.00000000E+00  0.00000000E+00
  0.00000000E+00  0.00000000E+00  0.00000000E+00
  0.00000000E+00  0.00000000E+00  0.00000000E+00
  0.00000000E+00  0.00000000E+00  0.00000000E+00
  0.00000000E+00  0.00000000E+00  0.00000000E+00
  0.00000000E+00  0.00000000E+00  0.00000000E+00
  0.00000000E+00  0.00000000E+00  0.00000000E+00
  0.00000000E+00  0.00000000E+00  0.00000000E+00
  0.00000000E+00  0.00000000E+00  0.00000000E+00
  0.00000000E+00  0.00000000E+00  0.00000000E+00
  0.00000000E+00  0.00000000E+00  0.00000000E+00
  0.00000000E+00  0.00000000E+00  0.00000000E+00
