title                                   
    1.000000000000000     
     9.6828826529627889   -0.0479021061362137   -0.0339286129172667
    -0.0479605980263273    9.7666730860028697    0.0188646353033835
    -0.0227017359159801    0.0124342043097847    6.4739601210644500
   Ti   V    W    Zr
    14    11     4     7
Direct
  0.5156135181781981  0.1535248907355285  0.2417294865221237
  0.3326396496344241  0.0166565726623379  0.4962487290591686
  0.1710089198206772  0.8171273302337482  0.7593565212756385
  0.3345156358133144  0.6490967485887765  0.0125631170490730
  0.6586207901322161  0.6461035798529924  0.0039134253095542
  0.8503178107973609  0.4812185796290686  0.2248401516452775
  0.1904010929173313  0.8195572813948420  0.2458930357109725
  0.0056556537867115  0.6544393448776518  0.5044221193089589
  0.3318086822736238  0.3395303297278400  0.0068626284472653
  0.8202723570654130  0.8432017438186356  0.2164490634227009
  0.1416615511122677  0.1900337230237119  0.7635997400827295
  0.3272828208991894  0.0216075883955701 -0.0006442139619600
  0.6484132911650502  0.3425551878213693 -0.0108070894341414
  0.0175185661872484  0.0066730193805161  0.0315036281989990
  0.8198933976740812  0.1647197757133874  0.2426600180495494
  0.0035563193586254  0.3439025880323100  0.4961824900482514
  0.4796323929663132  0.5306599348631659  0.7440279035896549
  0.6646010781413778 -0.0020351092731399  0.4744632197052446
  0.1596445785057033  0.4973547326859497  0.7572853659372876
  0.6558129219984167  0.0075143916627830  0.0171023745358203
  0.5018759446356872  0.8537413128085870  0.2471141065970293
  0.0119900786368903  0.6472990108632084 -0.0086374643045463
  0.5169927613897191  0.1425669495778729  0.7594079890292478
  0.0096046182186855  0.3380748016129913  0.0116721710295887
  0.3305410265745002  0.6509310264881984  0.4878310174896817
  0.4923992645372254  0.4996335546902173  0.2488894239854925
  0.8508135009499098  0.4971265034525938  0.7638075770517396
  0.1579943507108161  0.5017147003529286  0.2491591332470530
  0.1638370021586991  0.1802750320035107  0.2482689357707228
  0.0064421127549882 -0.0017084942551607  0.4839921769715515
  0.6634584708601251  0.3369313663759862  0.5063446016652894
  0.8300435970610867  0.1648820986347125  0.7620164712148029
  0.6676823288931919  0.6642394974627319  0.4842832132643153
  0.8393773853589681  0.8294952289791903  0.7681308220261995
  0.3334140860663538  0.3333576573749067  0.5132973915176059
  0.4946624427656085  0.8379975197504812  0.7467707189420577
 
  0.00000000E+00  0.00000000E+00  0.00000000E+00
  0.00000000E+00  0.00000000E+00  0.00000000E+00
  0.00000000E+00  0.00000000E+00  0.00000000E+00
  0.00000000E+00  0.00000000E+00  0.00000000E+00
  0.00000000E+00  0.00000000E+00  0.00000000E+00
  0.00000000E+00  0.00000000E+00  0.00000000E+00
  0.00000000E+00  0.00000000E+00  0.00000000E+00
  0.00000000E+00  0.00000000E+00  0.00000000E+00
  0.00000000E+00  0.00000000E+00  0.00000000E+00
  0.00000000E+00  0.00000000E+00  0.00000000E+00
  0.00000000E+00  0.00000000E+00  0.00000000E+00
  0.00000000E+00  0.00000000E+00  0.00000000E+00
  0.00000000E+00  0.00000000E+00  0.00000000E+00
  0.00000000E+00  0.00000000E+00  0.00000000E+00
  0.00000000E+00  0.00000000E+00  0.00000000E+00
  0.00000000E+00  0.00000000E+00  0.00000000E+00
  0.00000000E+00  0.00000000E+00  0.00000000E+00
  0.00000000E+00  0.00000000E+00  0.00000000E+00
  0.00000000E+00  0.00000000E+00  0.00000000E+00
  0.00000000E+00  0.00000000E+00  0.00000000E+00
  0.00000000E+00  0.00000000E+00  0.00000000E+00
  0.00000000E+00  0.00000000E+00  0.00000000E+00
  0.00000000E+00  0.00000000E+00  0.00000000E+00
  0.00000000E+00  0.00000000E+00  0.00000000E+00
  0.00000000E+00  0.00000000E+00  0.00000000E+00
  0.00000000E+00  0.00000000E+00  0.00000000E+00
  0.00000000E+00  0.00000000E+00  0.00000000E+00
  0.00000000E+00  0.00000000E+00  0.00000000E+00
  0.00000000E+00  0.00000000E+00  0.00000000E+00
  0.00000000E+00  0.00000000E+00  0.00000000E+00
  0.00000000E+00  0.00000000E+00  0.00000000E+00
  0.00000000E+00  0.00000000E+00  0.00000000E+00
  0.00000000E+00  0.00000000E+00  0.00000000E+00
  0.00000000E+00  0.00000000E+00  0.00000000E+00
  0.00000000E+00  0.00000000E+00  0.00000000E+00
  0.00000000E+00  0.00000000E+00  0.00000000E+00
