title                                   
    1.000000000000000     
    10.0614592887742980   -0.0208225186354327   -0.0503822518940796
    -0.0206363480541595    9.9336474595668456    0.0255098757181766
    -0.0336077825188609    0.0169329741594382    6.6895375924886027
   Hf   Mo   Ta   W    Zr
     7     7     7     8     7
Direct
  0.8217624450843942  0.1631960881692371  0.7335173500092947
 -0.0081820172980336  0.3313158526206633  0.0052954802502359
  0.3304042027705983 -0.0021073012949335  0.5058428874957495
  0.0138270360442987 -0.0010148643095513  0.4975345614333682
 -0.0003110712134638  0.6625795157210732 -0.0053699525242593
  0.1742287204941468  0.4984703788591805  0.2596296420619195
  0.3398318919766570  0.6717347022964468  0.5219193612291017
  0.8272406164938466  0.1674750744388598  0.2528545689285828
  0.5093507492918726  0.1679315529816311  0.2572739173808211
  0.8231646805735872  0.4974841488023192  0.2540681670627239
  0.6526671201643555  0.6621101915723951  0.5007472399464419
  0.6565929606357093  0.0019520412740619  0.4865156866274533
  0.6673037847793455  0.3347529074338250  0.4786508377165635
  0.5056120898517368  0.5045263517392481  0.7557419400845700
  0.1721314722878775  0.1892017246069191  0.2683609318022408
  0.6710954527226761  0.3357676290647621  0.0144011828012541
  0.1756276264386998  0.8139827258580422  0.2457132876702587
  0.1663930000906729  0.4952911130372552  0.7403814612595981
  0.5045067276188824  0.5032285962400911  0.2581619796764087
  0.0094674494756000  0.6703188016539280  0.5055450230204060
  0.5073029576714648  0.8299489208075753  0.2491571292661746
  0.1698063713572874  0.8234296156180781  0.7577389256424111
  0.3393526503895224  0.3353930710300930  0.5060248442573902
  0.6556210801827195  0.6593243874229961  0.0010155096812637
  0.1626616091454746  0.1832516742924809  0.7313659267445962
  0.5071658201481459  0.8333456901994666  0.7658707507321185
  0.3375692675872851  0.6693758918884223 -0.0069969386318287
 -0.0003861418875507  0.3278994151772106  0.4920594230656536
  0.6563287085065027  0.0009387122927042  0.0056523496459758
  0.8180312223689864  0.8319066937546186  0.2500961789669527
  0.5133679937083477  0.1662824049097980  0.7404901735979178
  0.8244124647706919  0.4990861738204501  0.7299277886207165
  0.3308205583174609  0.0003799178075582 -0.0000371155001917
  0.0081944724346091  0.0042886605380115  0.0010337489667390
  0.3413206383294031  0.3338566559095810 -0.0050550203133769
  0.8157153886861896  0.8330948837655022  0.7448707713247550
 
  0.00000000E+00  0.00000000E+00  0.00000000E+00
  0.00000000E+00  0.00000000E+00  0.00000000E+00
  0.00000000E+00  0.00000000E+00  0.00000000E+00
  0.00000000E+00  0.00000000E+00  0.00000000E+00
  0.00000000E+00  0.00000000E+00  0.00000000E+00
  0.00000000E+00  0.00000000E+00  0.00000000E+00
  0.00000000E+00  0.00000000E+00  0.00000000E+00
  0.00000000E+00  0.00000000E+00  0.00000000E+00
  0.00000000E+00  0.00000000E+00  0.00000000E+00
  0.00000000E+00  0.00000000E+00  0.00000000E+00
  0.00000000E+00  0.00000000E+00  0.00000000E+00
  0.00000000E+00  0.00000000E+00  0.00000000E+00
  0.00000000E+00  0.00000000E+00  0.00000000E+00
  0.00000000E+00  0.00000000E+00  0.00000000E+00
  0.00000000E+00  0.00000000E+00  0.00000000E+00
  0.00000000E+00  0.00000000E+00  0.00000000E+00
  0.00000000E+00  0.00000000E+00  0.00000000E+00
  0.00000000E+00  0.00000000E+00  0.00000000E+00
  0.00000000E+00  0.00000000E+00  0.00000000E+00
  0.00000000E+00  0.00000000E+00  0.00000000E+00
  0.00000000E+00  0.00000000E+00  0.00000000E+00
  0.00000000E+00  0.00000000E+00  0.00000000E+00
  0.00000000E+00  0.00000000E+00  0.00000000E+00
  0.00000000E+00  0.00000000E+00  0.00000000E+00
  0.00000000E+00  0.00000000E+00  0.00000000E+00
  0.00000000E+00  0.00000000E+00  0.00000000E+00
  0.00000000E+00  0.00000000E+00  0.00000000E+00
  0.00000000E+00  0.00000000E+00  0.00000000E+00
  0.00000000E+00  0.00000000E+00  0.00000000E+00
  0.00000000E+00  0.00000000E+00  0.00000000E+00
  0.00000000E+00  0.00000000E+00  0.00000000E+00
  0.00000000E+00  0.00000000E+00  0.00000000E+00
  0.00000000E+00  0.00000000E+00  0.00000000E+00
  0.00000000E+00  0.00000000E+00  0.00000000E+00
  0.00000000E+00  0.00000000E+00  0.00000000E+00
  0.00000000E+00  0.00000000E+00  0.00000000E+00
