title                                   
    1.000000000000000     
    10.0626887592834997    0.0138591511399790    0.0488357880600076
     0.0138977678473076   10.0239724548187592   -0.0043762348049970
     0.0329913595185065   -0.0031265752625910    6.7654658730835511
   Hf   Nb   Ta   Ti
     9     9     9     9
Direct
  0.3336806202746685 -0.0133894366437170  0.4975126143032605
  0.6650851593598863  0.0046580562291077 -0.0059598325631474
  0.1659053068864720  0.1728316501281346  0.7601301163645692
  0.6677207861834301  0.3255403086293795  0.0123808642790974
  0.1745793205414035  0.5001908516031052  0.2443431634823854
  0.8259110814602471  0.4998436830243455  0.7281637844575954
  0.8387964477163816  0.8346776895700945  0.2637615305356827
 -0.0005485588219686  0.6615782898149251 -0.0203287693108849
  0.4938241385056194  0.4986914735285667  0.7501917721843349
  0.3308629101133536  0.3346160281292476  0.4837273401763709
  0.6559120947447387  0.6687866068033523  0.4907319207404118
  0.3337444818151121  0.6748668005389812  0.0007713989077233
  0.6658949255099971  0.6661187323149214  0.0031272274859676
  0.8282991632021011  0.5071128031924264  0.2575166452889334
  0.1733152728084199  0.4890027450523708  0.7403136125419644
  0.0055021104829143 -0.0007073699354295  0.5093761748512149
  0.5058899259156493  0.8230861968113725  0.2484195666715474
  0.1605333361908432  0.1679355587118273  0.2499025887046288
  0.6618819762502104  0.0005331285673441  0.5110356264841257
  0.8275735536460715  0.8310955757821853  0.7342356690417619
  0.8405966727835112  0.1545361839915371  0.2701235799994029
 -0.0025278743156608  0.3349129666562515  0.4845476601525168
  0.4917174082131727  0.5035851916470934  0.2468370262706802
  0.1701246780678331  0.8471537695888522  0.7804756751972759
  0.8419885925192434  0.1719850650053192  0.7299618329670997
  0.5023870911868611  0.8204636838881311  0.7568002366003669
  0.5004391105354365  0.1671961916465403  0.2832291648654633
  0.4943055260556589  0.1764923012986039  0.7241673053381670
  0.0217400131265964  0.6737529876596438  0.5210744972509519
 -0.0139305387858638  0.0099369789733478 -0.0069193659920552
 -0.0130673340725449  0.3313320404668738  0.0116871993625007
  0.3471610870400892  0.0049655720955167  0.0146137036357143
  0.6725586980296410  0.3284541992870910  0.4747484566666428
  0.3469413272456557  0.3142537857189334  0.0207883586738971
  0.1604894653852257  0.8370108690171322  0.2236359572098562
  0.3247120241995946  0.6768988412065903  0.5048756971739774
 
  0.00000000E+00  0.00000000E+00  0.00000000E+00
  0.00000000E+00  0.00000000E+00  0.00000000E+00
  0.00000000E+00  0.00000000E+00  0.00000000E+00
  0.00000000E+00  0.00000000E+00  0.00000000E+00
  0.00000000E+00  0.00000000E+00  0.00000000E+00
  0.00000000E+00  0.00000000E+00  0.00000000E+00
  0.00000000E+00  0.00000000E+00  0.00000000E+00
  0.00000000E+00  0.00000000E+00  0.00000000E+00
  0.00000000E+00  0.00000000E+00  0.00000000E+00
  0.00000000E+00  0.00000000E+00  0.00000000E+00
  0.00000000E+00  0.00000000E+00  0.00000000E+00
  0.00000000E+00  0.00000000E+00  0.00000000E+00
  0.00000000E+00  0.00000000E+00  0.00000000E+00
  0.00000000E+00  0.00000000E+00  0.00000000E+00
  0.00000000E+00  0.00000000E+00  0.00000000E+00
  0.00000000E+00  0.00000000E+00  0.00000000E+00
  0.00000000E+00  0.00000000E+00  0.00000000E+00
  0.00000000E+00  0.00000000E+00  0.00000000E+00
  0.00000000E+00  0.00000000E+00  0.00000000E+00
  0.00000000E+00  0.00000000E+00  0.00000000E+00
  0.00000000E+00  0.00000000E+00  0.00000000E+00
  0.00000000E+00  0.00000000E+00  0.00000000E+00
  0.00000000E+00  0.00000000E+00  0.00000000E+00
  0.00000000E+00  0.00000000E+00  0.00000000E+00
  0.00000000E+00  0.00000000E+00  0.00000000E+00
  0.00000000E+00  0.00000000E+00  0.00000000E+00
  0.00000000E+00  0.00000000E+00  0.00000000E+00
  0.00000000E+00  0.00000000E+00  0.00000000E+00
  0.00000000E+00  0.00000000E+00  0.00000000E+00
  0.00000000E+00  0.00000000E+00  0.00000000E+00
  0.00000000E+00  0.00000000E+00  0.00000000E+00
  0.00000000E+00  0.00000000E+00  0.00000000E+00
  0.00000000E+00  0.00000000E+00  0.00000000E+00
  0.00000000E+00  0.00000000E+00  0.00000000E+00
  0.00000000E+00  0.00000000E+00  0.00000000E+00
  0.00000000E+00  0.00000000E+00  0.00000000E+00
