title                                   
    1.000000000000000     
     9.7829869743311928    0.1071835748500592   -0.0197350120807341
     0.1067484026240667    9.6714310625975219    0.0374264960614566
    -0.0132777337878220    0.0251608727179580    6.4888133389187672
   Hf   V    W 
    12    12    12
Direct
  0.0099110509442647 -0.0031042522262770  0.5096418888421923
  0.3362413134448545  0.6842484499566620  0.4929116064707848
  0.6820958734640606 -0.0066595325951667  0.5009063179439701
  0.4908070250353255  0.5028418361224147  0.2090369426344424
 -0.0035987086322556  0.3281995582420820 -0.0022833366456724
  0.1581458200385235  0.5057138658476454  0.2543385176823393
  0.1655059484184804  0.5067603708535078  0.7506284781667588
  0.6786154005050815  0.3465722394247458  0.4950474851037532
  0.5132543574845071  0.8155203454559866  0.7692355714754188
  0.3163971075729143 -0.0082120601389950  0.0002884822610655
  0.4967272388687924  0.1696172513061444  0.2463515768879261
  0.4960100722548086  0.1720820667219981  0.7546437006163008
  0.3075054890287615  0.3129728115432201 -0.0029058918367267
  0.1551414986708767  0.8206901596048469  0.7720329110677203
  0.8281465025925177  0.5149547195001568  0.2387739192995008
  0.6749009531855480  0.6592627066880486  0.4910953109916343
  0.3139502220552481  0.6918259165361712  0.0125089857379822
  0.6848446228110633  0.6613600860065967  0.0011805775906166
 -0.0137671688957414  0.6772164552913787  0.5035232924208515
  0.1529431027573074  0.8254913687714296  0.2423890589575163
  0.5062552318336166  0.4975812942091944  0.7520399402278165
 -0.0103274673766930  0.3253893240454081  0.5043046620617341
  0.1779376948751011  0.1772168036725533  0.7415144907629723
 -0.0114394100133079  0.6758632203822325 -0.0008047058356227
  0.8360233382151959  0.1645793906377665  0.2441346895458437
  0.8373647481597682  0.5099409243200826  0.7422513193791654
  0.6824485255462626  0.3372238993786077 -0.0124832685077695
  0.8395748682101120  0.8213090232829788  0.2458777686584794
  0.8391150886525632  0.8228924020379138  0.7621514769947763
  0.3264081398122083 -0.0049178023175942  0.4981449173284303
  0.3306455718907248  0.3365024632758596  0.5038630695205445
  0.5106088061872306  0.8330947595635193  0.2444624824596678
  0.0026861003524327 -0.0017132182124968  0.0074899826193997
  0.1701248555168343  0.1705249912566187  0.2618039405877100
  0.6806855783155632 -0.0073121520780202  0.0099376464926962
  0.8381106082174499  0.1644703136327797  0.7559661920357822
 
  0.00000000E+00  0.00000000E+00  0.00000000E+00
  0.00000000E+00  0.00000000E+00  0.00000000E+00
  0.00000000E+00  0.00000000E+00  0.00000000E+00
  0.00000000E+00  0.00000000E+00  0.00000000E+00
  0.00000000E+00  0.00000000E+00  0.00000000E+00
  0.00000000E+00  0.00000000E+00  0.00000000E+00
  0.00000000E+00  0.00000000E+00  0.00000000E+00
  0.00000000E+00  0.00000000E+00  0.00000000E+00
  0.00000000E+00  0.00000000E+00  0.00000000E+00
  0.00000000E+00  0.00000000E+00  0.00000000E+00
  0.00000000E+00  0.00000000E+00  0.00000000E+00
  0.00000000E+00  0.00000000E+00  0.00000000E+00
  0.00000000E+00  0.00000000E+00  0.00000000E+00
  0.00000000E+00  0.00000000E+00  0.00000000E+00
  0.00000000E+00  0.00000000E+00  0.00000000E+00
  0.00000000E+00  0.00000000E+00  0.00000000E+00
  0.00000000E+00  0.00000000E+00  0.00000000E+00
  0.00000000E+00  0.00000000E+00  0.00000000E+00
  0.00000000E+00  0.00000000E+00  0.00000000E+00
  0.00000000E+00  0.00000000E+00  0.00000000E+00
  0.00000000E+00  0.00000000E+00  0.00000000E+00
  0.00000000E+00  0.00000000E+00  0.00000000E+00
  0.00000000E+00  0.00000000E+00  0.00000000E+00
  0.00000000E+00  0.00000000E+00  0.00000000E+00
  0.00000000E+00  0.00000000E+00  0.00000000E+00
  0.00000000E+00  0.00000000E+00  0.00000000E+00
  0.00000000E+00  0.00000000E+00  0.00000000E+00
  0.00000000E+00  0.00000000E+00  0.00000000E+00
  0.00000000E+00  0.00000000E+00  0.00000000E+00
  0.00000000E+00  0.00000000E+00  0.00000000E+00
  0.00000000E+00  0.00000000E+00  0.00000000E+00
  0.00000000E+00  0.00000000E+00  0.00000000E+00
  0.00000000E+00  0.00000000E+00  0.00000000E+00
  0.00000000E+00  0.00000000E+00  0.00000000E+00
  0.00000000E+00  0.00000000E+00  0.00000000E+00
  0.00000000E+00  0.00000000E+00  0.00000000E+00
