title                                   
    1.000000000000000     
     9.7023212281303124    0.0109078196292122   -0.0010059984454948
     0.0109119901352246    9.6978778732816888    0.0031276586573688
    -0.0006707529750453    0.0020889135513908    6.4582325145490058
   Mo   Nb   Ta
    18     8    10
Direct
  0.1697391217957994  0.1652267686867770  0.2536061293903104
  0.6641393036270495  0.3307478476982310 -0.0014772973631192
  0.6640571922127648  0.3295952035492957  0.5033206058487809
  0.5018089992946522  0.1659518324377977  0.2530162547154383
 -0.0001682939996707  0.6669253057469787  0.0000808015794100
  0.1704579189639526  0.1656582755291855  0.7439922897865657
  0.6636097533941255  0.0010897395637269 -0.0011073508636976
  0.3340031048060242  0.3304537946377218  0.5003806684882366
  0.5031639860832898  0.8376513539095808  0.2501685443520620
  0.6619794651005105  0.0017105560797382  0.5021223028627299
  0.5028236019512140  0.8384914865025731  0.7506950106569690
 -0.0002087733805964  0.0029096610938080  0.5001996743284955
  0.8284994728149354  0.1652197245268939  0.7486897988038600
  0.5024497505798073  0.1663803444154245  0.7466886394851076
  0.3354244188236151  0.0029881063282565  0.4990981181930136
  0.5032372092548445  0.4969568812466412  0.7507746187779516
  0.6634864225103998  0.6678096788833129  0.0000799338374872
 -0.0008510884141436  0.6662763527344423  0.5001255895826776
  0.1641931377258495  0.8345934534450290  0.7449947194174417
  0.5033830229680176  0.4957778951782885  0.2507038584974847
  0.1633123226535702  0.8337481443498270  0.2522253621264365
  0.8268577039133885  0.1629928930489532  0.2523560257613148
  0.8321784057980365  0.8322501759197432  0.7507757157538423
  0.3360040051567919  0.0031319049390695 -0.0007330487140599
  0.6608964144861804  0.6685846002040083  0.5033489848852249
  0.8325133131002482  0.5014649237368076  0.2488819569731217
  0.3396359428983466  0.6692810043174607 -0.0017640960153213
  0.0011094221379162  0.0053086101497847 -0.0033722352655220
  0.3395190039380055  0.6706314177995188  0.5013417969609335
  0.1659924002991599  0.5018262234621106  0.2517821069402456
  0.1647999013367769  0.5021207785340057  0.7473351917565535
  0.3356782754025435  0.3297195313018388 -0.0027381088613652
  0.8328718433085862  0.8330097022061033  0.2502523284855546
  0.8320539479403973  0.5011349417429141  0.7537660190872876
  0.0017947685399670  0.3258437820388659 -0.0011836339155300
 -0.0004453970223569  0.3265371040552855  0.5015727236640781
 
  0.00000000E+00  0.00000000E+00  0.00000000E+00
  0.00000000E+00  0.00000000E+00  0.00000000E+00
  0.00000000E+00  0.00000000E+00  0.00000000E+00
  0.00000000E+00  0.00000000E+00  0.00000000E+00
  0.00000000E+00  0.00000000E+00  0.00000000E+00
  0.00000000E+00  0.00000000E+00  0.00000000E+00
  0.00000000E+00  0.00000000E+00  0.00000000E+00
  0.00000000E+00  0.00000000E+00  0.00000000E+00
  0.00000000E+00  0.00000000E+00  0.00000000E+00
  0.00000000E+00  0.00000000E+00  0.00000000E+00
  0.00000000E+00  0.00000000E+00  0.00000000E+00
  0.00000000E+00  0.00000000E+00  0.00000000E+00
  0.00000000E+00  0.00000000E+00  0.00000000E+00
  0.00000000E+00  0.00000000E+00  0.00000000E+00
  0.00000000E+00  0.00000000E+00  0.00000000E+00
  0.00000000E+00  0.00000000E+00  0.00000000E+00
  0.00000000E+00  0.00000000E+00  0.00000000E+00
  0.00000000E+00  0.00000000E+00  0.00000000E+00
  0.00000000E+00  0.00000000E+00  0.00000000E+00
  0.00000000E+00  0.00000000E+00  0.00000000E+00
  0.00000000E+00  0.00000000E+00  0.00000000E+00
  0.00000000E+00  0.00000000E+00  0.00000000E+00
  0.00000000E+00  0.00000000E+00  0.00000000E+00
  0.00000000E+00  0.00000000E+00  0.00000000E+00
  0.00000000E+00  0.00000000E+00  0.00000000E+00
  0.00000000E+00  0.00000000E+00  0.00000000E+00
  0.00000000E+00  0.00000000E+00  0.00000000E+00
  0.00000000E+00  0.00000000E+00  0.00000000E+00
  0.00000000E+00  0.00000000E+00  0.00000000E+00
  0.00000000E+00  0.00000000E+00  0.00000000E+00
  0.00000000E+00  0.00000000E+00  0.00000000E+00
  0.00000000E+00  0.00000000E+00  0.00000000E+00
  0.00000000E+00  0.00000000E+00  0.00000000E+00
  0.00000000E+00  0.00000000E+00  0.00000000E+00
  0.00000000E+00  0.00000000E+00  0.00000000E+00
  0.00000000E+00  0.00000000E+00  0.00000000E+00
