title                                   
    1.000000000000000     
    10.0289472978365986   -0.0242899878916864   -0.0263163049637038
    -0.0243826192206901   10.0026312684243042   -0.0322242731225559
    -0.0180129548931357   -0.0228475387267539    6.9352390898067586
   Hf   Mo   Ti   Zr
     9     9     9     9
Direct
  0.1583562579326699  0.5165678376300173  0.7039506311471110
  0.8386077035945487  0.8263823971012982  0.7309155061799086
 -0.0002259996698687  0.6578033316335336  0.0141812415674817
  0.5027082026957327  0.8346776107127486  0.7374449951667481
  0.6690799985544025  0.3166060230582318  0.5448884681405008
  0.8284233846661186  0.1635800420690983  0.2498812438655002
  0.3215979663096173  0.3515641761591978  0.0034698601849140
 -0.0147265099338204  0.3490762569661577 -0.0148917959260398
  0.5089358663749839  0.1627869128002075  0.2331116787886819
  0.1645709138992963  0.5065196372218871  0.2735822564072243
 -0.0165058710341450 -0.0095483692271906 -0.0013264952917951
 -0.0025122189560684  0.6782329642374622  0.4677162445873821
  0.6768400064305987  0.6710092343155752  0.4814429038646210
  0.3381714394374776 -0.0097344048239131 -0.0025263014774676
  0.8331975010308841  0.1485472239164958  0.7568048361964400
  0.6779177581184770  0.0048462479230133  0.5131365416393274
  0.3261943036441994  0.6716447100561951  0.4800876843144284
  0.8373630717560665  0.8324764825325284  0.2602979423902548
  0.8324680525964201  0.4933125323508893  0.2864294224558171
  0.6802036333532511  0.3316004375373696 -0.0227707409938708
  0.1650687790301091  0.8360752450494563  0.7467769517211599
 -0.0116706016406242  0.3155328661908487  0.5229897285744611
  0.8432269013513882  0.5239467236906746  0.7013507158366404
  0.6853857270809660 -0.0071614331979530 -0.0085386201234313
  0.5017107192113188  0.1480448381381575  0.7934929923203209
 -0.0112623444674382  0.0047765743382201  0.5057109503321077
  0.3305368766932639  0.3284381656938719  0.4971917193417802
  0.5067084006757171  0.4988277264379971  0.2699721609726115
  0.3231976766942746  0.6577366915630264  0.0060115080555458
  0.6871352962956595  0.6555956231449099  0.0081817645853018
  0.1601438718662319  0.1476520149436968  0.7835524657792109
  0.4961193263285018  0.5192429264188843  0.7222610916363610
  0.1677804267638742  0.8446467295115473  0.2496314458204232
  0.1537546449545567  0.1631806685288298  0.2335139319411317
  0.3351268108323537  0.0280818884991233  0.5127026028848387
  0.5063720275290055  0.8374314668779056  0.2593724671143687
 
  0.00000000E+00  0.00000000E+00  0.00000000E+00
  0.00000000E+00  0.00000000E+00  0.00000000E+00
  0.00000000E+00  0.00000000E+00  0.00000000E+00
  0.00000000E+00  0.00000000E+00  0.00000000E+00
  0.00000000E+00  0.00000000E+00  0.00000000E+00
  0.00000000E+00  0.00000000E+00  0.00000000E+00
  0.00000000E+00  0.00000000E+00  0.00000000E+00
  0.00000000E+00  0.00000000E+00  0.00000000E+00
  0.00000000E+00  0.00000000E+00  0.00000000E+00
  0.00000000E+00  0.00000000E+00  0.00000000E+00
  0.00000000E+00  0.00000000E+00  0.00000000E+00
  0.00000000E+00  0.00000000E+00  0.00000000E+00
  0.00000000E+00  0.00000000E+00  0.00000000E+00
  0.00000000E+00  0.00000000E+00  0.00000000E+00
  0.00000000E+00  0.00000000E+00  0.00000000E+00
  0.00000000E+00  0.00000000E+00  0.00000000E+00
  0.00000000E+00  0.00000000E+00  0.00000000E+00
  0.00000000E+00  0.00000000E+00  0.00000000E+00
  0.00000000E+00  0.00000000E+00  0.00000000E+00
  0.00000000E+00  0.00000000E+00  0.00000000E+00
  0.00000000E+00  0.00000000E+00  0.00000000E+00
  0.00000000E+00  0.00000000E+00  0.00000000E+00
  0.00000000E+00  0.00000000E+00  0.00000000E+00
  0.00000000E+00  0.00000000E+00  0.00000000E+00
  0.00000000E+00  0.00000000E+00  0.00000000E+00
  0.00000000E+00  0.00000000E+00  0.00000000E+00
  0.00000000E+00  0.00000000E+00  0.00000000E+00
  0.00000000E+00  0.00000000E+00  0.00000000E+00
  0.00000000E+00  0.00000000E+00  0.00000000E+00
  0.00000000E+00  0.00000000E+00  0.00000000E+00
  0.00000000E+00  0.00000000E+00  0.00000000E+00
  0.00000000E+00  0.00000000E+00  0.00000000E+00
  0.00000000E+00  0.00000000E+00  0.00000000E+00
  0.00000000E+00  0.00000000E+00  0.00000000E+00
  0.00000000E+00  0.00000000E+00  0.00000000E+00
  0.00000000E+00  0.00000000E+00  0.00000000E+00
