title                                   
    1.000000000000000     
     9.5588956257209841    0.0063107024965996    0.0087682531589862
     0.0063291583288532    9.5854365295318384    0.0034158630304857
     0.0058489112156161    0.0022814342602075    6.3891496036369455
   Mo   Nb   Ti   V    W 
     2    12     1     6    15
Direct
 -0.0007932975439756 -0.0021116637650087  0.0000681726286266
  0.1645549351463252  0.8311294663119109  0.7490725735871832
  0.4976512173897058  0.8278572455022092  0.7511429449448891
  0.1751219010991995  0.4973155360662287  0.2475543699937469
  0.4980645166990355  0.1742542264673760  0.7516513353075525
  0.1662482239766211  0.8326098251473159  0.2476964602632165
  0.6654751679281623  0.0003669240366611  0.0026449707187808
  0.8310038908302366  0.5000237839895579  0.2494468728113683
  0.0038678360793292  0.3321331974938863  0.5003196343875803
  0.8343731668867982  0.1663313339755820  0.2493196966969110
  0.1667592903663910  0.1697620015133372  0.7525452243135548
  0.3319830894224932  0.0029131283892518  0.0050854483766385
  0.6660885552374350 -0.0007055927430173  0.4984673493083614
  0.3308501583020717  0.0029781981726197  0.4957605291872765
  0.0009304229408048  0.6666594205953446 -0.0060899559509082
  0.3345356909627903  0.6623741360275623 -0.0019113293292100
  0.4966833059803408  0.1786715617988890  0.2499711971595656
  0.4989729229458523  0.4981958961346905  0.2493870505618150
  0.1677192043151644  0.1684978884952455  0.2483511284931115
  0.3371106059466234  0.3372161051142674  0.4971435672865441
  0.3369164597695016  0.3375145109379851  0.0042198286592833
 -0.0006695112228382 -0.0023678836386162  0.5013620214457931
  0.6624898233923806  0.3360494175088481  0.4995830629039945
  0.6621024374736435  0.3353619333905464  0.0029299216525221
  0.8346538727622693  0.1675742297896958  0.7517952391683862
  0.1728409930606522  0.4987533182647100  0.7510771823027539
  0.3351986664726767  0.6628786870854800  0.4994176233635631
  0.4978254884055643  0.4996292978930194  0.7516015960677874
  0.6650528168459631  0.6645828454311509  0.4994578621586063
  0.0002448179572641  0.6670802246586952  0.5049876179713240
  0.6657378459918475  0.6645958343641155  0.0000466759663285
  0.8333403117000860  0.8311416984618584  0.7495596954332970
  0.0026944733852949  0.3340031664451195 -0.0030357968709489
  0.8317239608946745  0.4987561482566514  0.7491297954187889
  0.4986796878129202  0.8263474236045737  0.2498846434188793
  0.8339670503866962  0.8316265288222570  0.2503557901930362
 
  0.00000000E+00  0.00000000E+00  0.00000000E+00
  0.00000000E+00  0.00000000E+00  0.00000000E+00
  0.00000000E+00  0.00000000E+00  0.00000000E+00
  0.00000000E+00  0.00000000E+00  0.00000000E+00
  0.00000000E+00  0.00000000E+00  0.00000000E+00
  0.00000000E+00  0.00000000E+00  0.00000000E+00
  0.00000000E+00  0.00000000E+00  0.00000000E+00
  0.00000000E+00  0.00000000E+00  0.00000000E+00
  0.00000000E+00  0.00000000E+00  0.00000000E+00
  0.00000000E+00  0.00000000E+00  0.00000000E+00
  0.00000000E+00  0.00000000E+00  0.00000000E+00
  0.00000000E+00  0.00000000E+00  0.00000000E+00
  0.00000000E+00  0.00000000E+00  0.00000000E+00
  0.00000000E+00  0.00000000E+00  0.00000000E+00
  0.00000000E+00  0.00000000E+00  0.00000000E+00
  0.00000000E+00  0.00000000E+00  0.00000000E+00
  0.00000000E+00  0.00000000E+00  0.00000000E+00
  0.00000000E+00  0.00000000E+00  0.00000000E+00
  0.00000000E+00  0.00000000E+00  0.00000000E+00
  0.00000000E+00  0.00000000E+00  0.00000000E+00
  0.00000000E+00  0.00000000E+00  0.00000000E+00
  0.00000000E+00  0.00000000E+00  0.00000000E+00
  0.00000000E+00  0.00000000E+00  0.00000000E+00
  0.00000000E+00  0.00000000E+00  0.00000000E+00
  0.00000000E+00  0.00000000E+00  0.00000000E+00
  0.00000000E+00  0.00000000E+00  0.00000000E+00
  0.00000000E+00  0.00000000E+00  0.00000000E+00
  0.00000000E+00  0.00000000E+00  0.00000000E+00
  0.00000000E+00  0.00000000E+00  0.00000000E+00
  0.00000000E+00  0.00000000E+00  0.00000000E+00
  0.00000000E+00  0.00000000E+00  0.00000000E+00
  0.00000000E+00  0.00000000E+00  0.00000000E+00
  0.00000000E+00  0.00000000E+00  0.00000000E+00
  0.00000000E+00  0.00000000E+00  0.00000000E+00
  0.00000000E+00  0.00000000E+00  0.00000000E+00
  0.00000000E+00  0.00000000E+00  0.00000000E+00
