title                                   
    1.000000000000000     
     9.2673907015519159    0.0248579098028203    0.0569751185864791
     0.0255992313163613    9.1020607099608206   -0.1304347748586254
     0.0383257738744223   -0.0867072892934957    5.9974564702903423
   Cr   Ti
    18    18
Direct
  0.8455969598722012  0.1620797296697895  0.2491269112889418
  0.8428440205738853  0.5003229847045797  0.7482873723079063
  0.8534177877268507  0.4957089398574890  0.2537598263481401
  0.3155196162057334  0.3242682797074500 -0.0061177783424045
  0.1522827818635179  0.1715199436724943  0.2555768996585138
  0.6865383832258222  0.0184344272155743  0.4975093215251797
  0.1553191874061277  0.4876180208047428  0.7511893172895246
 -0.0108928011053599  0.6510906225946193  0.4898777808586207
  0.1522805502685376  0.1701109756729090  0.7625584302542723
 -0.0010919887010983  0.3295084762870009 -0.0048118051223229
  0.6702314226733952  0.6510456199854913 -0.0223305586714333
  0.8457633520768144  0.1651683805704357  0.7491513678949629
  0.1389338135830211  0.8404060816456911  0.2594181735376605
 -0.0004445004940036  0.0158091935756118  0.4885576679920068
 -0.0005532409359351  0.0180261400053078  0.0036160863895954
  0.6872865774446499  0.0176799407558844  0.0004705390310433
  0.5055552919278046  0.5036855925520978  0.7702828260902485
  0.0046285220487747  0.3268272172615888  0.5076027670937375
  0.3240826814458193  0.6712226128848985 -0.0077154137688877
 -0.0032106536499452  0.6541719889751754 -0.0100093228023592
  0.3100326784740222 -0.0011025137241568  0.0153660284621177
  0.3235597074443276  0.3343971833236258  0.5333678001387698
  0.3136820657568024  0.0007808572083035  0.4921612369999518
  0.5221978334309020  0.8412745151711422  0.2407482072310284
  0.1324325945499388  0.8414761501042961  0.7339505810808273
  0.3281662969395432  0.6653792198603925  0.5139194214201984
  0.8291575649866684  0.8422035085537221  0.7399298682209010
  0.6933501924666989  0.3385098450399989  0.0026550831837644
  0.5211761762816581  0.8449611308415039  0.7549779804617442
  0.5127001972404510  0.1590815389053157  0.2513365471166724
  0.5104138974965510  0.1623823819622748  0.7632586634460645
  0.6883041580473195  0.3382985712999169  0.5090242223822463
  0.1642507136026754  0.4865514358506829  0.2498742057788516
  0.8297424417562023  0.8392140826498118  0.2411535611577603
  0.4864881856108820  0.4874157283685675  0.2278179066691561
  0.6702575324587428  0.6444711961857733  0.4944582773969974
 
  0.00000000E+00  0.00000000E+00  0.00000000E+00
  0.00000000E+00  0.00000000E+00  0.00000000E+00
  0.00000000E+00  0.00000000E+00  0.00000000E+00
  0.00000000E+00  0.00000000E+00  0.00000000E+00
  0.00000000E+00  0.00000000E+00  0.00000000E+00
  0.00000000E+00  0.00000000E+00  0.00000000E+00
  0.00000000E+00  0.00000000E+00  0.00000000E+00
  0.00000000E+00  0.00000000E+00  0.00000000E+00
  0.00000000E+00  0.00000000E+00  0.00000000E+00
  0.00000000E+00  0.00000000E+00  0.00000000E+00
  0.00000000E+00  0.00000000E+00  0.00000000E+00
  0.00000000E+00  0.00000000E+00  0.00000000E+00
  0.00000000E+00  0.00000000E+00  0.00000000E+00
  0.00000000E+00  0.00000000E+00  0.00000000E+00
  0.00000000E+00  0.00000000E+00  0.00000000E+00
  0.00000000E+00  0.00000000E+00  0.00000000E+00
  0.00000000E+00  0.00000000E+00  0.00000000E+00
  0.00000000E+00  0.00000000E+00  0.00000000E+00
  0.00000000E+00  0.00000000E+00  0.00000000E+00
  0.00000000E+00  0.00000000E+00  0.00000000E+00
  0.00000000E+00  0.00000000E+00  0.00000000E+00
  0.00000000E+00  0.00000000E+00  0.00000000E+00
  0.00000000E+00  0.00000000E+00  0.00000000E+00
  0.00000000E+00  0.00000000E+00  0.00000000E+00
  0.00000000E+00  0.00000000E+00  0.00000000E+00
  0.00000000E+00  0.00000000E+00  0.00000000E+00
  0.00000000E+00  0.00000000E+00  0.00000000E+00
  0.00000000E+00  0.00000000E+00  0.00000000E+00
  0.00000000E+00  0.00000000E+00  0.00000000E+00
  0.00000000E+00  0.00000000E+00  0.00000000E+00
  0.00000000E+00  0.00000000E+00  0.00000000E+00
  0.00000000E+00  0.00000000E+00  0.00000000E+00
  0.00000000E+00  0.00000000E+00  0.00000000E+00
  0.00000000E+00  0.00000000E+00  0.00000000E+00
  0.00000000E+00  0.00000000E+00  0.00000000E+00
  0.00000000E+00  0.00000000E+00  0.00000000E+00
