title                                   
    1.000000000000000     
     9.5510004733726550    0.0159753901859350   -0.0013111350839255
     0.0159768086376008    9.5633595215006544   -0.0167537376353697
    -0.0008740877608026   -0.0111584280810700    6.3687932928843374
   Nb   Ta   Ti   V    W 
     6    12     1    15     2
Direct
  0.3246756204127955 -0.0028996575364393  0.0029586164615087
  0.6644870408127883  0.6596586019146849  0.4958230678158291
  0.3239260251996628 -0.0028592578423780  0.4948763076827622
  0.0001058247986068  0.3324047468618116 -0.0043137971030004
  0.8318671249198242  0.1728883324805264  0.2530242550747180
  0.8365071596686625  0.8279961443472365  0.2539185282125499
  0.1702597657780266  0.4988961185625895  0.2576720883155982
  0.6648795077404223  0.6603283657864425 -0.0015448400525378
  0.4947486818212229  0.1765427775417578  0.2546475128298689
  0.6701119888248935 -0.0018885995722916 -0.0042523621306384
  0.4957592670700713  0.8306270621949678  0.7396720010590792
  0.0015298709592150  0.6666984549968636 -0.0058212812678024
  0.0034349853073011 -0.0017812160516932 -0.0039020409335069
  0.3346024761374497  0.6647633291756784 -0.0009265101952031
  0.4972528496227497  0.1748542112141070  0.7427044641877942
  0.0021624282447851  0.0016933324474320  0.5093180102512562
  0.0007550137715805  0.3315364058078963  0.5107179039950926
  0.6681364188819541  0.3452027718945033 -0.0040504726886555
  0.6735439728411865  0.0003832287624145  0.5015781298225636
  0.1653184843434800  0.8261305462567951  0.7430356057001569
  0.4945141601285497  0.4956513208402816  0.7367534418170728
  0.3326238197356999  0.3410548059340606  0.5052229627008002
  0.8316302372989561  0.1731252856360791  0.7515006510130425
  0.1685166778306731  0.8264753677469669  0.2585476471967262
  0.8342753405882690  0.5006996503247444  0.2600669436088285
  0.4954119389751800  0.4965695218781662  0.2589913476946505
  0.1737316873702990  0.4987170925719221  0.7460056024996067
  0.3334837905523687  0.6629575960176738  0.4978970192396233
  0.1713689680846173  0.1726188556344365  0.7553180856183513
  0.1723378717885194  0.1714898317105018  0.2500699634361622
  0.8389594453355016  0.8262001144003130  0.7463592836655275
  0.8337396023217538  0.5011872891120246  0.7407139136679900
  0.6684333102143342  0.3412631598318888  0.5031811545052668
  0.4917610983529343  0.8271329700222241  0.2515096925968667
  0.3321956705800971  0.3376354409247476 -0.0044703493744482
  0.0029518736855684  0.6660459981710635  0.5071974530764990
 
  0.00000000E+00  0.00000000E+00  0.00000000E+00
  0.00000000E+00  0.00000000E+00  0.00000000E+00
  0.00000000E+00  0.00000000E+00  0.00000000E+00
  0.00000000E+00  0.00000000E+00  0.00000000E+00
  0.00000000E+00  0.00000000E+00  0.00000000E+00
  0.00000000E+00  0.00000000E+00  0.00000000E+00
  0.00000000E+00  0.00000000E+00  0.00000000E+00
  0.00000000E+00  0.00000000E+00  0.00000000E+00
  0.00000000E+00  0.00000000E+00  0.00000000E+00
  0.00000000E+00  0.00000000E+00  0.00000000E+00
  0.00000000E+00  0.00000000E+00  0.00000000E+00
  0.00000000E+00  0.00000000E+00  0.00000000E+00
  0.00000000E+00  0.00000000E+00  0.00000000E+00
  0.00000000E+00  0.00000000E+00  0.00000000E+00
  0.00000000E+00  0.00000000E+00  0.00000000E+00
  0.00000000E+00  0.00000000E+00  0.00000000E+00
  0.00000000E+00  0.00000000E+00  0.00000000E+00
  0.00000000E+00  0.00000000E+00  0.00000000E+00
  0.00000000E+00  0.00000000E+00  0.00000000E+00
  0.00000000E+00  0.00000000E+00  0.00000000E+00
  0.00000000E+00  0.00000000E+00  0.00000000E+00
  0.00000000E+00  0.00000000E+00  0.00000000E+00
  0.00000000E+00  0.00000000E+00  0.00000000E+00
  0.00000000E+00  0.00000000E+00  0.00000000E+00
  0.00000000E+00  0.00000000E+00  0.00000000E+00
  0.00000000E+00  0.00000000E+00  0.00000000E+00
  0.00000000E+00  0.00000000E+00  0.00000000E+00
  0.00000000E+00  0.00000000E+00  0.00000000E+00
  0.00000000E+00  0.00000000E+00  0.00000000E+00
  0.00000000E+00  0.00000000E+00  0.00000000E+00
  0.00000000E+00  0.00000000E+00  0.00000000E+00
  0.00000000E+00  0.00000000E+00  0.00000000E+00
  0.00000000E+00  0.00000000E+00  0.00000000E+00
  0.00000000E+00  0.00000000E+00  0.00000000E+00
  0.00000000E+00  0.00000000E+00  0.00000000E+00
  0.00000000E+00  0.00000000E+00  0.00000000E+00
