title                                   
    1.000000000000000     
     9.9697404047625930    0.0268569027135971    0.0106388318492794
     0.0272365485034065    9.9646761515420117   -0.1046719659456442
     0.0067707432092737   -0.0700421713298341    6.6957934216020449
   Hf   Nb   Ti   V    W 
    15     3     4     3    11
Direct
  0.3268478155819491 -0.0007092299483633  0.5052901607939219
  0.8223669218986728  0.8403788849263374  0.2443336175920892
  0.6792041956268726  0.3240456869881793  0.4944884559821944
  0.5076696409385919  0.8448148400396970  0.7746341612815622
  0.3361549769508810  0.3244386535908632  0.0053164711808471
  0.1573670997519656  0.8304620473225883  0.7737738507540859
  0.0000493209118163  0.0110491438025548  0.5003743279591115
  0.4998128434354707  0.1397072358172333  0.2430200428142756
  0.6726712238200206  0.3316667806078539  0.0029882356043113
  0.4887557632507974  0.4919542937168376  0.7264237205468449
  0.1524578223543272  0.8394032927943511  0.2152651566431559
  0.3348590231918062  0.6755629216792850  0.4822659413628814
  0.3542802232688403  0.6605120877841087  0.0380498095460556
  0.1632231241425413  0.5024796374552238  0.7577323763668208
  0.0002139898517130  0.3266986117915154  0.4932500138747680
  0.8276954179255989  0.8328771931860630  0.7521974429199990
  0.8424215636359377  0.5078156322731056  0.7599479221260166
  0.6700369494901216  0.6622703389908158  0.4977877201629045
  0.6834648637931029  0.0198428656187333 -0.0222685776713610
  0.1541204302587865  0.4930363517574787  0.2381849880984712
 -0.0141204952567737  0.6644822246354931  0.4946640226048791
  0.6617420203563263  0.6508156319009127  0.0216550133353258
  0.1716055135000666  0.1739819350727606  0.2369192953333896
  0.6695697133446453  0.0091965342644253  0.5206008041840200
  0.3178369412187020  0.0261214565147733 -0.0264964362225233
  0.3267531789562886  0.3191060804961429  0.4936531718319851
  0.8426626451966983  0.5064199635528133  0.2430979012307632
  0.5235665232710406  0.8387467814586577  0.2676406117059603
  0.5023292369442756  0.4899867891433239  0.2808308768870594
  0.1666354192662839  0.1713117485761946  0.7564064461796686
  0.8392808964959168  0.1643097458337789  0.7546239058625464
  0.0006464037341079  0.3285933647977755  0.0008953793639253
  0.8415193432879791  0.1606501416655321  0.2351015096701776
 -0.0076736732452380  0.0164909123991553 -0.0093416966133191
  0.5010201256506708  0.1614849282126871  0.7405625080371477
 -0.0170470028008017  0.6599944912811124  0.0061308486700383
 
  0.00000000E+00  0.00000000E+00  0.00000000E+00
  0.00000000E+00  0.00000000E+00  0.00000000E+00
  0.00000000E+00  0.00000000E+00  0.00000000E+00
  0.00000000E+00  0.00000000E+00  0.00000000E+00
  0.00000000E+00  0.00000000E+00  0.00000000E+00
  0.00000000E+00  0.00000000E+00  0.00000000E+00
  0.00000000E+00  0.00000000E+00  0.00000000E+00
  0.00000000E+00  0.00000000E+00  0.00000000E+00
  0.00000000E+00  0.00000000E+00  0.00000000E+00
  0.00000000E+00  0.00000000E+00  0.00000000E+00
  0.00000000E+00  0.00000000E+00  0.00000000E+00
  0.00000000E+00  0.00000000E+00  0.00000000E+00
  0.00000000E+00  0.00000000E+00  0.00000000E+00
  0.00000000E+00  0.00000000E+00  0.00000000E+00
  0.00000000E+00  0.00000000E+00  0.00000000E+00
  0.00000000E+00  0.00000000E+00  0.00000000E+00
  0.00000000E+00  0.00000000E+00  0.00000000E+00
  0.00000000E+00  0.00000000E+00  0.00000000E+00
  0.00000000E+00  0.00000000E+00  0.00000000E+00
  0.00000000E+00  0.00000000E+00  0.00000000E+00
  0.00000000E+00  0.00000000E+00  0.00000000E+00
  0.00000000E+00  0.00000000E+00  0.00000000E+00
  0.00000000E+00  0.00000000E+00  0.00000000E+00
  0.00000000E+00  0.00000000E+00  0.00000000E+00
  0.00000000E+00  0.00000000E+00  0.00000000E+00
  0.00000000E+00  0.00000000E+00  0.00000000E+00
  0.00000000E+00  0.00000000E+00  0.00000000E+00
  0.00000000E+00  0.00000000E+00  0.00000000E+00
  0.00000000E+00  0.00000000E+00  0.00000000E+00
  0.00000000E+00  0.00000000E+00  0.00000000E+00
  0.00000000E+00  0.00000000E+00  0.00000000E+00
  0.00000000E+00  0.00000000E+00  0.00000000E+00
  0.00000000E+00  0.00000000E+00  0.00000000E+00
  0.00000000E+00  0.00000000E+00  0.00000000E+00
  0.00000000E+00  0.00000000E+00  0.00000000E+00
  0.00000000E+00  0.00000000E+00  0.00000000E+00
