title                                   
    1.000000000000000     
     9.8547635279782213   -0.0245496021775198   -0.0192613731979000
    -0.0245360277649807    9.8631601626942746    0.0458569309790734
    -0.0128118638849125    0.0305331278400708    6.5907422506729612
   Mo   Nb   Ta   W    Zr
     8     7     7     7     7
Direct
  0.3336916411994205  0.0006366153732738  0.0023810172941061
  0.1579516944481700  0.5079856781531759  0.2557205711903328
  0.5022832313275047  0.1667339455732763  0.2503133413298657
  0.1629423415035867  0.8364863205697954  0.7464202004673158
  0.1648949473593214  0.1573308124266632  0.2501311487348475
  0.6688451147204264  0.6674376790892242  0.5039577453828485
  0.5006156859920033  0.8400788323357461  0.7377451342483764
  0.8299910945607045  0.1664911255344732  0.7474651814353277
  0.1687295230123534  0.1578982553153685  0.7635002331203007
  0.3345910789968091  0.3273625619688710  0.0088836789270643
  0.8271503220937214  0.4989320285710069  0.2570605465978638
 -0.0014891115807295  0.6681653246993505 -0.0010767352611236
  0.8290414398757425  0.1650263429675436  0.2558278538449770
  0.8393489226954041  0.8321862293472151  0.2576082112909516
  0.8385664861662387  0.8314342561370350  0.7368665987077611
 -0.0058619892940403  0.3283220116671304  0.4996767676181583
  0.3332136264567402  0.0003467918685460  0.5020245717381495
  0.5000044782037312  0.8397364618765223  0.2571402420242486
  0.3347792695298585  0.6747662876690479  0.5038489258266441
  0.5005465180044170  0.1680591479251631  0.7537232900561842
  0.1651156474365282  0.8375575013360294  0.2468418145030032
  0.0026964567195021  0.0022703867151042  0.5046800843424822
 -0.0002990439796897  0.6672185574655725  0.4976755491760114
  0.0021576358940347  0.0009286765336199  0.0018984841620680
  0.6653823069951311  0.0026511951593996  0.5037100927220778
  0.6686702299545986  0.3293684067716504  0.5058697648115044
  0.8315624228710400  0.5003746733418627  0.7375346305789302
  0.5095935257965641  0.4921695013429313  0.7401164774714689
  0.6687519941951912  0.3303798294275148 -0.0059471627937152
  0.3274471632134137  0.3297185762961567  0.4940905823633306
  0.6675494511257783  0.6679962935117617 -0.0132668768778686
  0.1624716749627233  0.5030002237053166  0.7499978880406238
 -0.0038986176532738  0.3300354531322550  0.0082727021403523
  0.5078435682569813  0.4986651785127935  0.2546179686641423
  0.3359495488663093  0.6715170021160155 -0.0115051515811124
  0.6691697200737833  0.0007318355635870 -0.0038053722974993
 
  0.00000000E+00  0.00000000E+00  0.00000000E+00
  0.00000000E+00  0.00000000E+00  0.00000000E+00
  0.00000000E+00  0.00000000E+00  0.00000000E+00
  0.00000000E+00  0.00000000E+00  0.00000000E+00
  0.00000000E+00  0.00000000E+00  0.00000000E+00
  0.00000000E+00  0.00000000E+00  0.00000000E+00
  0.00000000E+00  0.00000000E+00  0.00000000E+00
  0.00000000E+00  0.00000000E+00  0.00000000E+00
  0.00000000E+00  0.00000000E+00  0.00000000E+00
  0.00000000E+00  0.00000000E+00  0.00000000E+00
  0.00000000E+00  0.00000000E+00  0.00000000E+00
  0.00000000E+00  0.00000000E+00  0.00000000E+00
  0.00000000E+00  0.00000000E+00  0.00000000E+00
  0.00000000E+00  0.00000000E+00  0.00000000E+00
  0.00000000E+00  0.00000000E+00  0.00000000E+00
  0.00000000E+00  0.00000000E+00  0.00000000E+00
  0.00000000E+00  0.00000000E+00  0.00000000E+00
  0.00000000E+00  0.00000000E+00  0.00000000E+00
  0.00000000E+00  0.00000000E+00  0.00000000E+00
  0.00000000E+00  0.00000000E+00  0.00000000E+00
  0.00000000E+00  0.00000000E+00  0.00000000E+00
  0.00000000E+00  0.00000000E+00  0.00000000E+00
  0.00000000E+00  0.00000000E+00  0.00000000E+00
  0.00000000E+00  0.00000000E+00  0.00000000E+00
  0.00000000E+00  0.00000000E+00  0.00000000E+00
  0.00000000E+00  0.00000000E+00  0.00000000E+00
  0.00000000E+00  0.00000000E+00  0.00000000E+00
  0.00000000E+00  0.00000000E+00  0.00000000E+00
  0.00000000E+00  0.00000000E+00  0.00000000E+00
  0.00000000E+00  0.00000000E+00  0.00000000E+00
  0.00000000E+00  0.00000000E+00  0.00000000E+00
  0.00000000E+00  0.00000000E+00  0.00000000E+00
  0.00000000E+00  0.00000000E+00  0.00000000E+00
  0.00000000E+00  0.00000000E+00  0.00000000E+00
  0.00000000E+00  0.00000000E+00  0.00000000E+00
  0.00000000E+00  0.00000000E+00  0.00000000E+00
