title                                   
    1.000000000000000     
    10.2285329043948501    0.0209081260222791   -0.0256089869354682
     0.0207733347647960   10.1158245226729022   -0.0145754946315519
    -0.0170899053621314   -0.0097517205588711    6.7231973978970059
   Hf   Mo   W    Zr
    14     4    11     7
Direct
  0.5142829215438668  0.1711344185127541  0.2522496622931806
  0.8276520783808188  0.1641995095839147  0.2447164581682738
 -0.0005280073079297  0.6656604102303337  0.5252844582429381
  0.3230604551849077  0.0061839546448938 -0.0000744142778738
  0.5151528011031299  0.1685209813807999  0.7467637086200077
  0.1489428572498076  0.8335194834274490  0.2602071334641352
  0.0092736826428229  0.0009514315009731 -0.0200757354256982
  0.8212897978404325  0.4866948094446284  0.7467392928025134
  0.3220496775525393  0.3212468833724648 -0.0097882733878385
  0.1718826499620614  0.4976429554531195  0.2492337596905748
  0.6700326901128686  0.6655574393304998  0.0144761443853636
  0.8355417460230863  0.8432122715721134  0.2595159643958695
  0.3242216748581599  0.6726316231569958  0.5240602811899449
  0.5037865296559996  0.4894335266827958  0.2686327480091315
  0.6704397131568118 -0.0130762535848788  0.0007026602143642
  0.6751789531076480  0.3371503894172770  0.4894846365188866
  0.6726604187398119  0.6711635156618809  0.4896049677722703
  0.1608393037775547  0.8407273959415541  0.7426570591981709
  0.6731667898114796  0.3461515351779421  0.0106875016842358
  0.8228142412654601  0.8427766344611509  0.7367316793134808
  0.8217677807012055  0.4885175662742903  0.2519941658561319
  0.5228195383284898  0.8441485397414710  0.2621153368537783
  0.0111438554805070  0.3257442627316516 -0.0033189214084220
  0.3142801553568116  0.3232831204742894  0.5112664162231798
  0.1596055001482270  0.1696835900140106  0.7423865189586567
  0.1587577836001098  0.1712975891828501  0.2522255192297397
  0.6687140336441987 -0.0063342917352205  0.4949690550796894
  0.1649192449229732  0.4882950533990271  0.7539449854714039
  0.0086237910879079  0.0046707826931720  0.5121479650177208
  0.5161494199146029  0.8449077540678801  0.7443979958267175
  0.3311942622804828  0.6755855644829322 -0.0127235611918015
  0.0030109744531197  0.3325192451071894  0.4972512137899067
  0.3291276587044294  0.0039142162663466  0.4959496595253226
 -0.0061084405346030  0.6650468775015521 -0.0183423351158273
  0.8261164349790100  0.1663433994091106  0.7488647199581154
  0.5081370322711913  0.4908938150207851  0.7350615730537547
 
  0.00000000E+00  0.00000000E+00  0.00000000E+00
  0.00000000E+00  0.00000000E+00  0.00000000E+00
  0.00000000E+00  0.00000000E+00  0.00000000E+00
  0.00000000E+00  0.00000000E+00  0.00000000E+00
  0.00000000E+00  0.00000000E+00  0.00000000E+00
  0.00000000E+00  0.00000000E+00  0.00000000E+00
  0.00000000E+00  0.00000000E+00  0.00000000E+00
  0.00000000E+00  0.00000000E+00  0.00000000E+00
  0.00000000E+00  0.00000000E+00  0.00000000E+00
  0.00000000E+00  0.00000000E+00  0.00000000E+00
  0.00000000E+00  0.00000000E+00  0.00000000E+00
  0.00000000E+00  0.00000000E+00  0.00000000E+00
  0.00000000E+00  0.00000000E+00  0.00000000E+00
  0.00000000E+00  0.00000000E+00  0.00000000E+00
  0.00000000E+00  0.00000000E+00  0.00000000E+00
  0.00000000E+00  0.00000000E+00  0.00000000E+00
  0.00000000E+00  0.00000000E+00  0.00000000E+00
  0.00000000E+00  0.00000000E+00  0.00000000E+00
  0.00000000E+00  0.00000000E+00  0.00000000E+00
  0.00000000E+00  0.00000000E+00  0.00000000E+00
  0.00000000E+00  0.00000000E+00  0.00000000E+00
  0.00000000E+00  0.00000000E+00  0.00000000E+00
  0.00000000E+00  0.00000000E+00  0.00000000E+00
  0.00000000E+00  0.00000000E+00  0.00000000E+00
  0.00000000E+00  0.00000000E+00  0.00000000E+00
  0.00000000E+00  0.00000000E+00  0.00000000E+00
  0.00000000E+00  0.00000000E+00  0.00000000E+00
  0.00000000E+00  0.00000000E+00  0.00000000E+00
  0.00000000E+00  0.00000000E+00  0.00000000E+00
  0.00000000E+00  0.00000000E+00  0.00000000E+00
  0.00000000E+00  0.00000000E+00  0.00000000E+00
  0.00000000E+00  0.00000000E+00  0.00000000E+00
  0.00000000E+00  0.00000000E+00  0.00000000E+00
  0.00000000E+00  0.00000000E+00  0.00000000E+00
  0.00000000E+00  0.00000000E+00  0.00000000E+00
  0.00000000E+00  0.00000000E+00  0.00000000E+00
