title                                   
    1.000000000000000     
    10.0074973247871863    0.0675087671315308   -0.1882363172234465
     0.0699377769300841   10.0485351150933386   -0.0841774102110042
    -0.1278991099538672   -0.0553126004223450    6.8784223032062215
   Hf   Ti   V    Zr
     9     9     9     9
Direct
  0.6557912788834260  0.6610099681380327 -0.0094395820384395
  0.8466267242436323  0.8077567723103288  0.7279646669215935
  0.0086743987271105  0.0038461402090697  0.5158748262498687
  0.2949623382114733  0.0229485541692776 -0.0491300692677967
 -0.0136741489393166  0.6479283716787222  0.0382834506242207
  0.3384997859243146  0.6649369341185563  0.5033186388414027
  0.4829278142435364  0.8366572608718772  0.2130862567949867
  0.6774046692945352 -0.0048563040080939  0.4739264623206058
  0.4889333324834703  0.1799761405258631  0.7251560990201931
  0.6705752437092821  0.3290783082380694  0.4764711440011938
  0.5181067167492277  0.8661469469200540  0.7823364230151760
  0.8243541165961230  0.5024145040884649  0.7365655391034849
  0.4914878528599395  0.4744990080575043  0.7378106277560881
  0.3281092036974862  0.3552947952696147  0.0032528616773678
  0.6296991067631424  0.6702907195900347  0.5330132868707843
  0.1828664165356853  0.8186744207538494  0.2066600309279666
  0.1583434209718041  0.8092507037997013  0.7823781183105505
 -0.0052345280974239 -0.0133114655802960  0.0245367579388944
  0.8304677560050971  0.1401215385566683  0.2216308272042748
  0.0360161168426264  0.7017955501630726  0.4647343641034836
  0.4868123398963186  0.4963349364260187  0.2707120320930012
  0.1833109529174691  0.5035952302776598  0.2524957415322412
  0.7017768572508865 -0.0300097062991288  0.0466922701820601
  0.8471515560622620  0.8302884294217329  0.2701716611496124
  0.3343571530764257  0.3640880579356769  0.4775456023912074
  0.1896953888382983  0.2118061816183386  0.6969880225533114
  0.3387764787597426  0.6294492075483676  0.0286909214926467
  0.1919741508938706  0.1805214857230337  0.2709074023674599
  0.3226501849642759 -0.0254186733171463  0.5133232706181698
  0.6804084378635006  0.3575649553081831  0.0361983942236906
 -0.0172550305391741  0.3195498914642388  0.4770859729053546
  0.1483414754370065  0.5135299231838291  0.7357483466037896
  0.0103456444392358  0.3191406483642989 -0.0072322512914812
  0.8028638358716537  0.1522073436229443  0.7874214697706609
  0.5079471728978919  0.1596809048445549  0.2089538058049537
  0.8259057856651648  0.5432123160070266  0.3258666072274196
 
  0.00000000E+00  0.00000000E+00  0.00000000E+00
  0.00000000E+00  0.00000000E+00  0.00000000E+00
  0.00000000E+00  0.00000000E+00  0.00000000E+00
  0.00000000E+00  0.00000000E+00  0.00000000E+00
  0.00000000E+00  0.00000000E+00  0.00000000E+00
  0.00000000E+00  0.00000000E+00  0.00000000E+00
  0.00000000E+00  0.00000000E+00  0.00000000E+00
  0.00000000E+00  0.00000000E+00  0.00000000E+00
  0.00000000E+00  0.00000000E+00  0.00000000E+00
  0.00000000E+00  0.00000000E+00  0.00000000E+00
  0.00000000E+00  0.00000000E+00  0.00000000E+00
  0.00000000E+00  0.00000000E+00  0.00000000E+00
  0.00000000E+00  0.00000000E+00  0.00000000E+00
  0.00000000E+00  0.00000000E+00  0.00000000E+00
  0.00000000E+00  0.00000000E+00  0.00000000E+00
  0.00000000E+00  0.00000000E+00  0.00000000E+00
  0.00000000E+00  0.00000000E+00  0.00000000E+00
  0.00000000E+00  0.00000000E+00  0.00000000E+00
  0.00000000E+00  0.00000000E+00  0.00000000E+00
  0.00000000E+00  0.00000000E+00  0.00000000E+00
  0.00000000E+00  0.00000000E+00  0.00000000E+00
  0.00000000E+00  0.00000000E+00  0.00000000E+00
  0.00000000E+00  0.00000000E+00  0.00000000E+00
  0.00000000E+00  0.00000000E+00  0.00000000E+00
  0.00000000E+00  0.00000000E+00  0.00000000E+00
  0.00000000E+00  0.00000000E+00  0.00000000E+00
  0.00000000E+00  0.00000000E+00  0.00000000E+00
  0.00000000E+00  0.00000000E+00  0.00000000E+00
  0.00000000E+00  0.00000000E+00  0.00000000E+00
  0.00000000E+00  0.00000000E+00  0.00000000E+00
  0.00000000E+00  0.00000000E+00  0.00000000E+00
  0.00000000E+00  0.00000000E+00  0.00000000E+00
  0.00000000E+00  0.00000000E+00  0.00000000E+00
  0.00000000E+00  0.00000000E+00  0.00000000E+00
  0.00000000E+00  0.00000000E+00  0.00000000E+00
  0.00000000E+00  0.00000000E+00  0.00000000E+00
