title                                   
    1.000000000000000     
    10.1279352450676026    0.0395332528207682    0.0242754080283028
     0.0398026719511749   10.0293291561044899   -0.0308145209457112
     0.0163681057835227   -0.0206564189378889    6.6516779975099078
   Hf   Mo   W    Zr
     9     9     9     9
Direct
  0.0131106953314024  0.6709893549804866  0.0082875090031164
  0.4780998897363813  0.1819074726730318  0.7496768587572411
 -0.0013470790202123  0.0023345458597967  0.4833404545646913
  0.3239483419854438 -0.0163886727061375  0.0003459494514969
  0.1627389453515005  0.1768495464740031  0.7525677824313771
  0.8625792287730386  0.4935035467659292  0.7398059677053280
  0.3337870644818577  0.6741671789681373 -0.0041679418346242
  0.4720382623355388  0.1826965376653113  0.2482335133029010
  0.6685891580017987 -0.0010743361557345  0.4864272348637250
  0.3228527103915417  0.3429916362039335  0.5131840668359010
  0.1608306406251040  0.8287756498188394  0.2544616962929655
  0.4953342306954804  0.8236427804283797  0.2568243966133832
  0.1700109680165260  0.4957838523520018  0.7473569280947581
  0.8439596998876860  0.1662410291089153  0.2405010363991421
  0.0002458077928062  0.3261652930921950  0.4908708863120721
  0.3373007899203814  0.6741885496332506  0.5150896714509315
  0.4849946908758900  0.4969064304888443  0.7484092057866589
 -0.0002003245184005  0.3289539762185674  0.0087860456005606
  0.8428092415501298  0.8324080472129364  0.2447230903281584
  0.4968361414158684  0.8260513874993931  0.7404798790802051
  0.1591257705616806  0.8293932245959629  0.7404153134826422
  0.0002646066441586  0.0021554675005034  0.0068411043888126
  0.3212972998306707  0.3452244728087924 -0.0060521164170383
  0.8581274315378814  0.4917180677555388  0.2630779239849225
  0.0093471686927371  0.6747965740826197  0.4919094888041648
  0.1589364615562124  0.1808444168032560  0.2368902829522818
  0.8538050461710404  0.1713132315749234  0.7572442995039798
  0.4844749612913331  0.4924523946359471  0.2650621783886916
  0.1701813401404287  0.4965446282752757  0.2671737791222448
  0.8437451976149407  0.8334387726120069  0.7498650065574233
  0.6759373400843591  0.3313264174604472  0.0019164662001148
  0.3243820805980009 -0.0126287327204622  0.4897003045690011
  0.6633556463282907  0.6646307873402754  0.0055730551193683
  0.6655727395799871 -0.0017266923004781  0.0038253876522678
  0.6764949115541036  0.3282841157038232  0.5020503800252526
  0.6664328941844121  0.6651390472894892  0.4993029146258822
 
  0.00000000E+00  0.00000000E+00  0.00000000E+00
  0.00000000E+00  0.00000000E+00  0.00000000E+00
  0.00000000E+00  0.00000000E+00  0.00000000E+00
  0.00000000E+00  0.00000000E+00  0.00000000E+00
  0.00000000E+00  0.00000000E+00  0.00000000E+00
  0.00000000E+00  0.00000000E+00  0.00000000E+00
  0.00000000E+00  0.00000000E+00  0.00000000E+00
  0.00000000E+00  0.00000000E+00  0.00000000E+00
  0.00000000E+00  0.00000000E+00  0.00000000E+00
  0.00000000E+00  0.00000000E+00  0.00000000E+00
  0.00000000E+00  0.00000000E+00  0.00000000E+00
  0.00000000E+00  0.00000000E+00  0.00000000E+00
  0.00000000E+00  0.00000000E+00  0.00000000E+00
  0.00000000E+00  0.00000000E+00  0.00000000E+00
  0.00000000E+00  0.00000000E+00  0.00000000E+00
  0.00000000E+00  0.00000000E+00  0.00000000E+00
  0.00000000E+00  0.00000000E+00  0.00000000E+00
  0.00000000E+00  0.00000000E+00  0.00000000E+00
  0.00000000E+00  0.00000000E+00  0.00000000E+00
  0.00000000E+00  0.00000000E+00  0.00000000E+00
  0.00000000E+00  0.00000000E+00  0.00000000E+00
  0.00000000E+00  0.00000000E+00  0.00000000E+00
  0.00000000E+00  0.00000000E+00  0.00000000E+00
  0.00000000E+00  0.00000000E+00  0.00000000E+00
  0.00000000E+00  0.00000000E+00  0.00000000E+00
  0.00000000E+00  0.00000000E+00  0.00000000E+00
  0.00000000E+00  0.00000000E+00  0.00000000E+00
  0.00000000E+00  0.00000000E+00  0.00000000E+00
  0.00000000E+00  0.00000000E+00  0.00000000E+00
  0.00000000E+00  0.00000000E+00  0.00000000E+00
  0.00000000E+00  0.00000000E+00  0.00000000E+00
  0.00000000E+00  0.00000000E+00  0.00000000E+00
  0.00000000E+00  0.00000000E+00  0.00000000E+00
  0.00000000E+00  0.00000000E+00  0.00000000E+00
  0.00000000E+00  0.00000000E+00  0.00000000E+00
  0.00000000E+00  0.00000000E+00  0.00000000E+00
