title                                   
    1.000000000000000     
     9.8854748786256064    0.0171419301010612   -0.0553907276249885
     0.0173153028044540    9.8323585657424939    0.0564524398747694
    -0.0370851399454003    0.0376592627311776    6.5586542127001390
   Hf   Mo   Ta   W 
     9     9     9     9
Direct
  0.4957706160766422  0.1605942747684251  0.2567659198897257
  0.6809534403018546 -0.0016781337692958 -0.0028346430278521
  0.3257202445865355  0.3445138771901444  0.4981859410319509
 -0.0002143119583656  0.6691552254792886  0.0050228403234345
  0.4951156848829393  0.8309975485723196  0.7385217793829911
  0.4970609552640466  0.1607627557774648  0.7344397146681584
  0.6748531050578362  0.3306858750842351 -0.0037931463587914
 -0.0035443340609043  0.0009752446382067  0.5107010915382585
  0.5006331536208933  0.5052170513152562  0.2440549402917606
  0.1705110336983255  0.8321578114806100  0.7565120005204287
  0.6786094495684477 -0.0039602753842301  0.4989989002253578
  0.8387086567913137  0.1700961027628287  0.2542260061437279
  0.8310142072073072  0.8296799241917766  0.7438187031660991
  0.5007565591379585  0.5060840452452503  0.7421936252579980
  0.3282943134889599  0.6617723843300997  0.5009378697158168
  0.3263176185245617  0.6678414582119424 -0.0020294887293310
  0.3183483980450197 -0.0038006522575777  0.5007670427512634
  0.1664575748427954  0.5035494095248413  0.2486803873062134
  0.1647965771229263  0.1679530109999746  0.2455561698920763
  0.1643344160078937  0.5017669287917389  0.7538441124926212
  0.1631847918709686  0.1722644617660665  0.7610785956665398
  0.8395727016530249  0.4970887651790897  0.7391451303067261
  0.1698479116817277  0.8332241072127000  0.2588544336840060
  0.6770687001412308  0.6649228730967757 -0.0071791149888682
  0.3227495052379498 -0.0049549439166298 -0.0004233860236451
  0.4970425477706271  0.8261505971652747  0.2549144077774108
  0.8314147852340118  0.8291999079018423  0.2619925757705418
  0.6713540783414488  0.6634313663232184  0.4991348986145736
 -0.0026730611055467  0.3356494044543809  0.0047435741474323
  0.3266236560464568  0.3385171115429819 -0.0060117794326652
  0.8345709710452797  0.4994370231486701  0.2599248314601524
  0.8397991093900141  0.1733304200895771  0.7468589859422302
  0.6773348770113798  0.3344988863090201  0.4980172341434796
  0.0003485300537923  0.6675375910651571  0.5034617498130441
  0.0002831414801547  0.3342194266653882  0.4973848593513914
 -0.0030196040595076  0.0011191350431883  0.0035332372857436
 
  0.00000000E+00  0.00000000E+00  0.00000000E+00
  0.00000000E+00  0.00000000E+00  0.00000000E+00
  0.00000000E+00  0.00000000E+00  0.00000000E+00
  0.00000000E+00  0.00000000E+00  0.00000000E+00
  0.00000000E+00  0.00000000E+00  0.00000000E+00
  0.00000000E+00  0.00000000E+00  0.00000000E+00
  0.00000000E+00  0.00000000E+00  0.00000000E+00
  0.00000000E+00  0.00000000E+00  0.00000000E+00
  0.00000000E+00  0.00000000E+00  0.00000000E+00
  0.00000000E+00  0.00000000E+00  0.00000000E+00
  0.00000000E+00  0.00000000E+00  0.00000000E+00
  0.00000000E+00  0.00000000E+00  0.00000000E+00
  0.00000000E+00  0.00000000E+00  0.00000000E+00
  0.00000000E+00  0.00000000E+00  0.00000000E+00
  0.00000000E+00  0.00000000E+00  0.00000000E+00
  0.00000000E+00  0.00000000E+00  0.00000000E+00
  0.00000000E+00  0.00000000E+00  0.00000000E+00
  0.00000000E+00  0.00000000E+00  0.00000000E+00
  0.00000000E+00  0.00000000E+00  0.00000000E+00
  0.00000000E+00  0.00000000E+00  0.00000000E+00
  0.00000000E+00  0.00000000E+00  0.00000000E+00
  0.00000000E+00  0.00000000E+00  0.00000000E+00
  0.00000000E+00  0.00000000E+00  0.00000000E+00
  0.00000000E+00  0.00000000E+00  0.00000000E+00
  0.00000000E+00  0.00000000E+00  0.00000000E+00
  0.00000000E+00  0.00000000E+00  0.00000000E+00
  0.00000000E+00  0.00000000E+00  0.00000000E+00
  0.00000000E+00  0.00000000E+00  0.00000000E+00
  0.00000000E+00  0.00000000E+00  0.00000000E+00
  0.00000000E+00  0.00000000E+00  0.00000000E+00
  0.00000000E+00  0.00000000E+00  0.00000000E+00
  0.00000000E+00  0.00000000E+00  0.00000000E+00
  0.00000000E+00  0.00000000E+00  0.00000000E+00
  0.00000000E+00  0.00000000E+00  0.00000000E+00
  0.00000000E+00  0.00000000E+00  0.00000000E+00
  0.00000000E+00  0.00000000E+00  0.00000000E+00
