title                                   
    1.000000000000000     
     9.0656514788649254    0.0783360123989296   -0.0662066125628838
     0.0779975057394681    9.1698658610194510    0.1638322623973867
    -0.0449724532161945    0.1097086668212537    6.0581496224852893
   Cr   Ti   V    Zr
    10     4    19     3
Direct
  0.1635994502160640  0.1774096559989592  0.2318626208417199
  0.8376520101041831  0.1703329599731637  0.2618476759413204
  0.8241346072518659  0.4918055377405088  0.2655426341132366
  0.6641369945687219  0.6650038507397273  0.5015050406887285
  0.5043670974520271  0.8105728796042700  0.7536117170176120
  0.5011071864291061  0.5008104689564742  0.2507903273299585
  0.3267870378482349  0.3417671302036143  0.0019640824726026
  0.8332197074269284  0.8300381661747309  0.7396531392832139
  0.6692549267859851  0.3378871215744927  0.4849655258930573
  0.3278358104110972  0.0186594181042214 -0.0088495605786310
  0.4966868809513023  0.1960079135520170  0.7577412983171270
  0.1648316436090050  0.8347195870698714  0.7553159834533183
  0.8196017307605180  0.4900237923659255  0.7379758756360787
 -0.0190903314681694  0.6542146102983618  0.0002127997668324
  0.1718799333019461  0.4955217640712137  0.7450340455747955
  0.1657541093642269  0.1730981985398070  0.7569804287326661
  0.6688245706979652  0.3386819654871702  0.0201536019484878
  0.6644176320404179  0.6624801578753000  0.0046353695273894
  0.3505867671043753  0.6551075299791982 -0.0056796201050333
  0.0016454360384279  0.3266066718482186  0.0111293611914817
  0.5112493270829923  0.8092273524428483  0.2632061471592171
 -0.0083313230537809  0.0148224047598655 -0.0038637951101237
  0.5007168922835129  0.1925778916576081  0.2384724664885139
  0.6809060898524582 -0.0093882090432696  0.5124395574079545
  0.1726149533698847  0.4928986731989449  0.2449350455380957
  0.8323920411503967  0.8200331242782867  0.2757172407981324
  0.8358765998413569  0.1744287903947651  0.7439494718176239
  0.3264364558471849  0.3443891563063089  0.4831290088828686
  0.3461585030060521  0.6563461861282972  0.5049759523974219
 -0.0093597780567524  0.6572560594426474  0.4981362555699136
  0.0011623996976490  0.3268357992260756  0.4863074659701075
  0.5011906275869660  0.4993186430695014  0.7466531834521004
 -0.0119142864198560  0.0143097050231061  0.4973434868198681
  0.1669127372260573  0.8349489727543635  0.2361728895974114
  0.6647248432832694 -0.0066417890061255  0.0069836802212724
  0.3520307164083805  0.0078878592095325  0.4990495959436594
 
  0.00000000E+00  0.00000000E+00  0.00000000E+00
  0.00000000E+00  0.00000000E+00  0.00000000E+00
  0.00000000E+00  0.00000000E+00  0.00000000E+00
  0.00000000E+00  0.00000000E+00  0.00000000E+00
  0.00000000E+00  0.00000000E+00  0.00000000E+00
  0.00000000E+00  0.00000000E+00  0.00000000E+00
  0.00000000E+00  0.00000000E+00  0.00000000E+00
  0.00000000E+00  0.00000000E+00  0.00000000E+00
  0.00000000E+00  0.00000000E+00  0.00000000E+00
  0.00000000E+00  0.00000000E+00  0.00000000E+00
  0.00000000E+00  0.00000000E+00  0.00000000E+00
  0.00000000E+00  0.00000000E+00  0.00000000E+00
  0.00000000E+00  0.00000000E+00  0.00000000E+00
  0.00000000E+00  0.00000000E+00  0.00000000E+00
  0.00000000E+00  0.00000000E+00  0.00000000E+00
  0.00000000E+00  0.00000000E+00  0.00000000E+00
  0.00000000E+00  0.00000000E+00  0.00000000E+00
  0.00000000E+00  0.00000000E+00  0.00000000E+00
  0.00000000E+00  0.00000000E+00  0.00000000E+00
  0.00000000E+00  0.00000000E+00  0.00000000E+00
  0.00000000E+00  0.00000000E+00  0.00000000E+00
  0.00000000E+00  0.00000000E+00  0.00000000E+00
  0.00000000E+00  0.00000000E+00  0.00000000E+00
  0.00000000E+00  0.00000000E+00  0.00000000E+00
  0.00000000E+00  0.00000000E+00  0.00000000E+00
  0.00000000E+00  0.00000000E+00  0.00000000E+00
  0.00000000E+00  0.00000000E+00  0.00000000E+00
  0.00000000E+00  0.00000000E+00  0.00000000E+00
  0.00000000E+00  0.00000000E+00  0.00000000E+00
  0.00000000E+00  0.00000000E+00  0.00000000E+00
  0.00000000E+00  0.00000000E+00  0.00000000E+00
  0.00000000E+00  0.00000000E+00  0.00000000E+00
  0.00000000E+00  0.00000000E+00  0.00000000E+00
  0.00000000E+00  0.00000000E+00  0.00000000E+00
  0.00000000E+00  0.00000000E+00  0.00000000E+00
  0.00000000E+00  0.00000000E+00  0.00000000E+00
