title                                   
    1.000000000000000     
    10.0779768567140788    0.0973902056263237   -0.0558706813077923
     0.0971071846829717   10.1317018538254722    0.0122341042726089
    -0.0365954101327327    0.0079006753624602    6.8773250839904749
   Hf   Mo   Ta   Zr
     9     9     9     9
Direct
  0.8428733704645319  0.5000447237898041  0.7343792853868051
  0.8319719112228703  0.4973501571461668  0.2720297247784911
 -0.0104096333897818  0.0230877409465462  0.4830964884724290
  0.8223081022112992  0.8225646484722350  0.2812167425312434
  0.6773323034807521  0.0053923757468989 -0.0009401987005566
 -0.0116358010061938  0.0158020786787321  0.0065694723127359
  0.3286464648003961  0.0034512183122602  0.0199348868210869
  0.1656856791312086  0.8250236572494806  0.2782032585662547
  0.8295688390361035  0.8241928152494254  0.7219714130161415
  0.5057790469141424  0.4948811491899797  0.7460387075494296
  0.6697149013161685  0.0098115542312479  0.5067841803344468
 -0.0010619637728783  0.3239058649566418  0.4838171674710963
  0.8289178960468159  0.1782633292426662  0.2519702916623893
  0.6545774319870302  0.6573262048498327  0.5048185333734794
  0.1632796641193379  0.1778642185594900  0.2444999480308072
  0.0060488163835724  0.6572390551827828  0.4865990114082973
  0.8283782674015367  0.1752943674616727  0.7489900680944717
  0.1646977764039549  0.4992737426901611  0.2531323302670540
  0.3368270942236729  0.3374280528641539  0.0063268096110381
  0.6730339713567309  0.3261464926615695 -0.0135223141591270
  0.0000426705508032  0.3280233100426530  0.0169936504862059
  0.3425039853468291  0.6475306639854271  0.4926897678063405
  0.6665720659511077  0.3283991727419858  0.5239964883512194
  0.5061503597218197  0.8319349372963547  0.2781858971906750
  0.5147673314264448  0.4955989978494346  0.2547527806244788
  0.3263989220607341  0.0134201341547744  0.4717586776308179
  0.4987250623207551  0.1613701050821417  0.7439650372434595
  0.0076709182694142  0.6619419318972184  0.0157232413574754
  0.5107913940802987  0.1660052109259214  0.2578970033469120
  0.1567196065363551  0.4942454390654204  0.7426429201187387
  0.1646508618004812  0.8293508554296128  0.7238253382751113
  0.3345209129050858  0.3434319573485572  0.4883638260802686
  0.1655456977004049  0.1796655230409854  0.7462798770910640
  0.5009320494606858  0.8440745134779761  0.7299504875513767
  0.6576557369567058  0.6642109190991006 -0.0042173912298470
  0.3398182865808043  0.6564528810806899  0.0012765912476869
 
  0.00000000E+00  0.00000000E+00  0.00000000E+00
  0.00000000E+00  0.00000000E+00  0.00000000E+00
  0.00000000E+00  0.00000000E+00  0.00000000E+00
  0.00000000E+00  0.00000000E+00  0.00000000E+00
  0.00000000E+00  0.00000000E+00  0.00000000E+00
  0.00000000E+00  0.00000000E+00  0.00000000E+00
  0.00000000E+00  0.00000000E+00  0.00000000E+00
  0.00000000E+00  0.00000000E+00  0.00000000E+00
  0.00000000E+00  0.00000000E+00  0.00000000E+00
  0.00000000E+00  0.00000000E+00  0.00000000E+00
  0.00000000E+00  0.00000000E+00  0.00000000E+00
  0.00000000E+00  0.00000000E+00  0.00000000E+00
  0.00000000E+00  0.00000000E+00  0.00000000E+00
  0.00000000E+00  0.00000000E+00  0.00000000E+00
  0.00000000E+00  0.00000000E+00  0.00000000E+00
  0.00000000E+00  0.00000000E+00  0.00000000E+00
  0.00000000E+00  0.00000000E+00  0.00000000E+00
  0.00000000E+00  0.00000000E+00  0.00000000E+00
  0.00000000E+00  0.00000000E+00  0.00000000E+00
  0.00000000E+00  0.00000000E+00  0.00000000E+00
  0.00000000E+00  0.00000000E+00  0.00000000E+00
  0.00000000E+00  0.00000000E+00  0.00000000E+00
  0.00000000E+00  0.00000000E+00  0.00000000E+00
  0.00000000E+00  0.00000000E+00  0.00000000E+00
  0.00000000E+00  0.00000000E+00  0.00000000E+00
  0.00000000E+00  0.00000000E+00  0.00000000E+00
  0.00000000E+00  0.00000000E+00  0.00000000E+00
  0.00000000E+00  0.00000000E+00  0.00000000E+00
  0.00000000E+00  0.00000000E+00  0.00000000E+00
  0.00000000E+00  0.00000000E+00  0.00000000E+00
  0.00000000E+00  0.00000000E+00  0.00000000E+00
  0.00000000E+00  0.00000000E+00  0.00000000E+00
  0.00000000E+00  0.00000000E+00  0.00000000E+00
  0.00000000E+00  0.00000000E+00  0.00000000E+00
  0.00000000E+00  0.00000000E+00  0.00000000E+00
  0.00000000E+00  0.00000000E+00  0.00000000E+00
