title                                   
    1.000000000000000     
     9.7015000616091012    0.0019057556265858   -0.0012988095358732
     0.0019033821042867    9.7045396208055639    0.0013564729254790
    -0.0008580270770366    0.0008932944655432    6.4829131479974889
   Hf   Mo   Nb   Ta   V 
     3     3     4    15    11
Direct
  0.1545468134506344  0.8336644559937278  0.7436300881501947
  0.4976010443963094  0.8389992460755988  0.7495193989638814
  0.8419088076982368  0.8368552776669202  0.7532086173675497
  0.3322422831856061  0.3329755411584063 -0.0067295656415732
 -0.0007237981792982  0.6615322504880162  0.0095482831356682
  0.3249541801168432  0.0066627523131380  0.4915660575956310
  0.0029354097717134  0.3321049826292003 -0.0019722312275484
  0.6692118504531863  0.6566125054594716  0.4946504205242050
  0.6692999964286617  0.3374792886320978 -0.0046271188476363
  0.3327003172194596  0.6617023456915354 -0.0025940906749835
  0.8342178382447676  0.1674267456052774  0.2456709563895079
  0.4973003972300568  0.8355673768251413  0.2536219617081931
  0.1663968822294782  0.4977458318663925  0.2429943988082344
  0.4963862971711058  0.1709063387269639  0.7486777751305563
  0.1687348270536684  0.1661719054829035  0.7445794895199310
  0.4981553433456051  0.4894221415203923  0.2538290415509870
  0.8356291496236212  0.1641298414945193  0.7504401598782717
  0.3270757742037232  0.6524968485751379  0.5039978234963947
  0.6653942653822246  0.6578861481103899  0.0060953208157938
  0.0027210632826188  0.3359645502610403  0.4957584097983899
  0.3194955497756377  0.0010083677745711  0.0151702718050416
  0.6696981798031025  0.0088987360671970  0.4900320704115386
  0.8382596221608635  0.5030199185687589  0.7458158750143322
  0.4950495216321631  0.1725351710465310  0.2533588777484655
  0.8413960721815609  0.8332500040432158  0.2481940655026492
  0.8393994777111217  0.5059657336269713  0.2491386925292879
  0.1584185368837212  0.8352468198380048  0.2566671721776798
  0.3334404259733378  0.3402396645937247  0.5089253487744821
  0.1696375368752606  0.4954889175012788  0.7514581976370917
  0.0149764681932930  0.0084152124780250  0.0317314241766553
  0.0017730586857055  0.6534574772399412  0.4867553045270500
  0.0050296764374697  0.0113785975277000  0.4694428205965090
  0.4962847651742988  0.4880367176895871  0.7474626011172699
  0.1687053356383348  0.1632904237081868  0.2563562687012784
  0.6646175149817360  0.0082407710250877  0.0135236929836063
  0.6671295155841713  0.3352210926949483  0.5041021198554154
 
  0.00000000E+00  0.00000000E+00  0.00000000E+00
  0.00000000E+00  0.00000000E+00  0.00000000E+00
  0.00000000E+00  0.00000000E+00  0.00000000E+00
  0.00000000E+00  0.00000000E+00  0.00000000E+00
  0.00000000E+00  0.00000000E+00  0.00000000E+00
  0.00000000E+00  0.00000000E+00  0.00000000E+00
  0.00000000E+00  0.00000000E+00  0.00000000E+00
  0.00000000E+00  0.00000000E+00  0.00000000E+00
  0.00000000E+00  0.00000000E+00  0.00000000E+00
  0.00000000E+00  0.00000000E+00  0.00000000E+00
  0.00000000E+00  0.00000000E+00  0.00000000E+00
  0.00000000E+00  0.00000000E+00  0.00000000E+00
  0.00000000E+00  0.00000000E+00  0.00000000E+00
  0.00000000E+00  0.00000000E+00  0.00000000E+00
  0.00000000E+00  0.00000000E+00  0.00000000E+00
  0.00000000E+00  0.00000000E+00  0.00000000E+00
  0.00000000E+00  0.00000000E+00  0.00000000E+00
  0.00000000E+00  0.00000000E+00  0.00000000E+00
  0.00000000E+00  0.00000000E+00  0.00000000E+00
  0.00000000E+00  0.00000000E+00  0.00000000E+00
  0.00000000E+00  0.00000000E+00  0.00000000E+00
  0.00000000E+00  0.00000000E+00  0.00000000E+00
  0.00000000E+00  0.00000000E+00  0.00000000E+00
  0.00000000E+00  0.00000000E+00  0.00000000E+00
  0.00000000E+00  0.00000000E+00  0.00000000E+00
  0.00000000E+00  0.00000000E+00  0.00000000E+00
  0.00000000E+00  0.00000000E+00  0.00000000E+00
  0.00000000E+00  0.00000000E+00  0.00000000E+00
  0.00000000E+00  0.00000000E+00  0.00000000E+00
  0.00000000E+00  0.00000000E+00  0.00000000E+00
  0.00000000E+00  0.00000000E+00  0.00000000E+00
  0.00000000E+00  0.00000000E+00  0.00000000E+00
  0.00000000E+00  0.00000000E+00  0.00000000E+00
  0.00000000E+00  0.00000000E+00  0.00000000E+00
  0.00000000E+00  0.00000000E+00  0.00000000E+00
  0.00000000E+00  0.00000000E+00  0.00000000E+00
