title                                   
    1.000000000000000     
     9.8502094606094648    0.0050043355008407   -0.0188250258489048
     0.0049178662700241    9.8359047390752838   -0.0427146295455177
    -0.0125425441018348   -0.0283827190014411    6.6266645974670269
   Ta   Ti   V    Zr
    19    10     4     3
Direct
  0.6654141260060629  0.3367828700241715  0.0012141063570606
 -0.0043044950735863 -0.0045659721127769  0.0026252640239125
  0.6687257165994177  0.3424961847321599  0.4970308405431832
 -0.0037223498555735  0.0005252758710640  0.4929694508039844
  0.1607832474921600  0.8247278971298774  0.2620192766785623
  0.6678886408536109  0.6728381586142677  0.0126194458801229
  0.0055533478026555  0.3351111812384917  0.5170897046211780
  0.1592116479907203  0.1766925112944141  0.2386108473425960
  0.1642499953289348  0.1703620594818289  0.7579668774172419
  0.5006035176385241  0.1760113597622264  0.2513499710679379
  0.8364654565383817  0.4995319173731475  0.7615881273542994
  0.4998188608999073  0.4998456782899381  0.7582655159905988
 -0.0125359076213015  0.6677147144854559  0.5010554438335623
  0.8348682067513349  0.1665501381977856  0.7548920491829159
 -0.0067078855011454  0.6768112597561329 -0.0021248049089513
  0.6739424912465375 -0.0064549632518420  0.0303101492079067
  0.3291581548867685  0.6566360460079608  0.5185862144964006
  0.3342916682655327  0.6669193070708024 -0.0093527947626586
  0.4959213246599183  0.5011670436710866  0.2484616058414933
  0.5104250005504062  0.8315445229640641  0.7371861935459529
  0.6863193262875387  0.0027001296859954  0.4658165475617349
  0.6767020106186162  0.6580483861444807  0.4950746670763989
  0.3287551478545329  0.3377567374390265  0.5141538950144933
  0.8271003208073031  0.8395461181625838  0.7512128932649467
  0.8449122361617469  0.1827028268026314  0.2388316131082943
  0.8390490873515374  0.4939264188586133  0.2401726161093722
  0.3171078885380674  0.0059698314880940  0.4810656127109937
  0.1564316012715604  0.8291486915429617  0.7395000188722549
  0.4993301028854672  0.8252597573236885  0.2866559884234808
  0.1658489436962991  0.4967943922024788  0.7622784131873598
  0.0045910294101317  0.3274801005745188 -0.0245569074885051
  0.3328763531029861  0.3380831169737623 -0.0194182548023527
  0.8391310473266289  0.8305230648720215  0.2425546258719088
  0.5025966967309448  0.1577309371425639  0.7429129899993430
  0.3344301095762404 -0.0101952800933711  0.0159265915967237
  0.1647673329211304  0.4932775802796935  0.2354552049762550
 
  0.00000000E+00  0.00000000E+00  0.00000000E+00
  0.00000000E+00  0.00000000E+00  0.00000000E+00
  0.00000000E+00  0.00000000E+00  0.00000000E+00
  0.00000000E+00  0.00000000E+00  0.00000000E+00
  0.00000000E+00  0.00000000E+00  0.00000000E+00
  0.00000000E+00  0.00000000E+00  0.00000000E+00
  0.00000000E+00  0.00000000E+00  0.00000000E+00
  0.00000000E+00  0.00000000E+00  0.00000000E+00
  0.00000000E+00  0.00000000E+00  0.00000000E+00
  0.00000000E+00  0.00000000E+00  0.00000000E+00
  0.00000000E+00  0.00000000E+00  0.00000000E+00
  0.00000000E+00  0.00000000E+00  0.00000000E+00
  0.00000000E+00  0.00000000E+00  0.00000000E+00
  0.00000000E+00  0.00000000E+00  0.00000000E+00
  0.00000000E+00  0.00000000E+00  0.00000000E+00
  0.00000000E+00  0.00000000E+00  0.00000000E+00
  0.00000000E+00  0.00000000E+00  0.00000000E+00
  0.00000000E+00  0.00000000E+00  0.00000000E+00
  0.00000000E+00  0.00000000E+00  0.00000000E+00
  0.00000000E+00  0.00000000E+00  0.00000000E+00
  0.00000000E+00  0.00000000E+00  0.00000000E+00
  0.00000000E+00  0.00000000E+00  0.00000000E+00
  0.00000000E+00  0.00000000E+00  0.00000000E+00
  0.00000000E+00  0.00000000E+00  0.00000000E+00
  0.00000000E+00  0.00000000E+00  0.00000000E+00
  0.00000000E+00  0.00000000E+00  0.00000000E+00
  0.00000000E+00  0.00000000E+00  0.00000000E+00
  0.00000000E+00  0.00000000E+00  0.00000000E+00
  0.00000000E+00  0.00000000E+00  0.00000000E+00
  0.00000000E+00  0.00000000E+00  0.00000000E+00
  0.00000000E+00  0.00000000E+00  0.00000000E+00
  0.00000000E+00  0.00000000E+00  0.00000000E+00
  0.00000000E+00  0.00000000E+00  0.00000000E+00
  0.00000000E+00  0.00000000E+00  0.00000000E+00
  0.00000000E+00  0.00000000E+00  0.00000000E+00
  0.00000000E+00  0.00000000E+00  0.00000000E+00
