title                                   
    1.000000000000000     
     9.5884299075645760    0.0706115677031367    0.0069795782552138
     0.0739455312149176    9.4564587106138269    0.1756713519301723
     0.0025242197873938    0.1162669759424479    6.1975475411433836
   Cr   Hf   Ti
    18    10     8
Direct
  0.6408339554331107  0.3186579625218552  0.5090253552948580
  0.0111555821689506  0.6855292208821754  0.0052888336130565
  0.6522867044991993  0.3263092155215316 -0.0091146076661661
  0.0239952475991169  0.0066036124532922  0.0029685543229181
  0.3106335284410431  0.6715983459927248  0.0108774093997571
  0.4853094428520224  0.1840527296798769  0.2503769089992374
  0.3388922501068700  0.3097899259333660  0.4751554577605266
  0.6653026343210308  0.6508313366514397  0.5182423419153482
  0.8876036165244867  0.8888043029041115  0.7899843024355133
  0.0400446628063833  0.3405475862895962  0.4680309473663508
  0.4883868126944866  0.1800399280976966  0.7381351745454575
  0.3174743187309362  0.6631878736854512  0.4807086585458959
  0.7789125666879384  0.4607047144188032  0.7231383836392236
  0.0258863039007139 -0.0032643664302035  0.5105349341739153
  0.3387153951702367  0.3093078986667255  0.0098624509454818
  0.1755112995939601  0.5113377463947745  0.2586767981001845
  0.1764461993945308  0.1750987345158654  0.2487349077822014
  0.1661231553672426  0.8412902399968968  0.7627452433904089
  0.2023277396314038  0.5011589894708040  0.7423926394105577
  0.8195359593770777  0.4903577443478855  0.2729929633556752
  0.8432332952694271  0.1768819335100918  0.7419698817441586
  0.0119238460540144  0.3666313337551487 -0.0022463187066277
  0.6422551577443314  0.0076423195750379  0.0059824782386207
 -0.0256929816475134  0.6654405872283009  0.5639654790540987
  0.6556313880972197 -0.0251070973600767  0.5254635578327732
  0.8420278403846038  0.1683180970846105  0.2581012004793792
  0.4920625658584371  0.4960729159597065  0.2380217787598347
  0.7055581750185993  0.6864922834451908 -0.0590890831409848
  0.4964611364280455  0.4877954891753022  0.7408242470899549
  0.1709353816850353  0.1719758331365576  0.7318452063638266
  0.4787706380628816  0.8006085297406078  0.2545082323794585
  0.1628020789662983  0.8307957745436698  0.2527031749696810
  0.3307898742693684  0.0089037668352439 -0.0008216458268488
  0.4539632519652136  0.7969345818003571  0.7470368693896360
  0.3343930805717247  0.0046125273293938  0.4889134597677257
  0.8595078959715724  0.8440573822461882  0.2440638242749102
 
  0.00000000E+00  0.00000000E+00  0.00000000E+00
  0.00000000E+00  0.00000000E+00  0.00000000E+00
  0.00000000E+00  0.00000000E+00  0.00000000E+00
  0.00000000E+00  0.00000000E+00  0.00000000E+00
  0.00000000E+00  0.00000000E+00  0.00000000E+00
  0.00000000E+00  0.00000000E+00  0.00000000E+00
  0.00000000E+00  0.00000000E+00  0.00000000E+00
  0.00000000E+00  0.00000000E+00  0.00000000E+00
  0.00000000E+00  0.00000000E+00  0.00000000E+00
  0.00000000E+00  0.00000000E+00  0.00000000E+00
  0.00000000E+00  0.00000000E+00  0.00000000E+00
  0.00000000E+00  0.00000000E+00  0.00000000E+00
  0.00000000E+00  0.00000000E+00  0.00000000E+00
  0.00000000E+00  0.00000000E+00  0.00000000E+00
  0.00000000E+00  0.00000000E+00  0.00000000E+00
  0.00000000E+00  0.00000000E+00  0.00000000E+00
  0.00000000E+00  0.00000000E+00  0.00000000E+00
  0.00000000E+00  0.00000000E+00  0.00000000E+00
  0.00000000E+00  0.00000000E+00  0.00000000E+00
  0.00000000E+00  0.00000000E+00  0.00000000E+00
  0.00000000E+00  0.00000000E+00  0.00000000E+00
  0.00000000E+00  0.00000000E+00  0.00000000E+00
  0.00000000E+00  0.00000000E+00  0.00000000E+00
  0.00000000E+00  0.00000000E+00  0.00000000E+00
  0.00000000E+00  0.00000000E+00  0.00000000E+00
  0.00000000E+00  0.00000000E+00  0.00000000E+00
  0.00000000E+00  0.00000000E+00  0.00000000E+00
  0.00000000E+00  0.00000000E+00  0.00000000E+00
  0.00000000E+00  0.00000000E+00  0.00000000E+00
  0.00000000E+00  0.00000000E+00  0.00000000E+00
  0.00000000E+00  0.00000000E+00  0.00000000E+00
  0.00000000E+00  0.00000000E+00  0.00000000E+00
  0.00000000E+00  0.00000000E+00  0.00000000E+00
  0.00000000E+00  0.00000000E+00  0.00000000E+00
  0.00000000E+00  0.00000000E+00  0.00000000E+00
  0.00000000E+00  0.00000000E+00  0.00000000E+00
