title                                   
    1.000000000000000     
     9.6491847835435731   -0.0042775285344841   -0.0132551927110354
    -0.0042592691845346    9.6449765990265810    0.0131024327868587
    -0.0088219209850134    0.0087366759144507    6.4238882777632753
   Hf   Mo   Nb   Ti
     3    19     4    10
Direct
  0.4966295171748263  0.4964523865235351  0.2500797700194337
  0.0009233709685455  0.3324264004599634 -0.0032158316709559
 -0.0007223859295637  0.0028538032581782  0.0028123728132183
  0.8351810126910094  0.5014281474308401  0.7400978471049411
  0.1704610034306497  0.1682735626117461  0.7445933519818312
  0.0038074931432081  0.3288641333314304  0.5009699180119697
  0.5004578973370740  0.1634674113442454  0.2505138500736681
  0.8277802809938326  0.8349260506963025  0.2652785068354832
  0.8275861567888367  0.1723637305611879  0.2596231546142471
  0.6674357252252124  0.3298357354838889  0.5074082034697031
  0.1728316326326380  0.1696360459636562  0.2496125765685908
  0.1706052442846106  0.8304670367838821  0.7489927808169838
  0.4995848645402693  0.1628125674432653  0.7530340993879543
  0.3332119077043620  0.6696008979973939 -0.0023034079775422
  0.4955257733839459  0.8298067607467845  0.2498115565597600
  0.1704335737909199  0.8283204000379574  0.2488149577072599
  0.6608681471798322  0.0013832287022908  0.4945143688297811
  0.8263461398464966  0.1652351552306408  0.7388920876832207
  0.5001461456491891  0.4977383817010823  0.7529036000103110
  0.3320560408259129 -0.0012704969079184  0.0032697557308835
  0.3341709987988507  0.3247803605422105 -0.0087270703502560
  0.3350975028039293  0.6722486174474722  0.5022207074026345
  0.6688356304398776  0.3272746933488010 -0.0046966980583075
  0.4979739225941866  0.8327854187564702  0.7532546953658447
  0.1731350514400534  0.5037264049619561  0.7435554808355321
 -0.0010163875364315  0.6735303432177999  0.4988571772768339
  0.6680816961432290  0.6652238089446414  0.5093264072512538
  0.1769442793473105  0.5039924289493481  0.2503816922393142
  0.8356399208845485  0.4946269375019565  0.2668621705464888
  0.8208932982307461  0.8469119318851202  0.7330153962131436
  0.0033543827673961  0.0040666140247168  0.4915208935284952
  0.3275341472886725  0.0014542045514024  0.4963271626342725
  0.6607583462987939  0.0025614174849174  0.0086749650695806
 -0.0037167781290129  0.6751621231194128 -0.0001440856446506
  0.6751709635244375  0.6703117740125699 -0.0010542486659781
  0.3359934834416027  0.3167215818508537  0.5049218357850560
 
  0.00000000E+00  0.00000000E+00  0.00000000E+00
  0.00000000E+00  0.00000000E+00  0.00000000E+00
  0.00000000E+00  0.00000000E+00  0.00000000E+00
  0.00000000E+00  0.00000000E+00  0.00000000E+00
  0.00000000E+00  0.00000000E+00  0.00000000E+00
  0.00000000E+00  0.00000000E+00  0.00000000E+00
  0.00000000E+00  0.00000000E+00  0.00000000E+00
  0.00000000E+00  0.00000000E+00  0.00000000E+00
  0.00000000E+00  0.00000000E+00  0.00000000E+00
  0.00000000E+00  0.00000000E+00  0.00000000E+00
  0.00000000E+00  0.00000000E+00  0.00000000E+00
  0.00000000E+00  0.00000000E+00  0.00000000E+00
  0.00000000E+00  0.00000000E+00  0.00000000E+00
  0.00000000E+00  0.00000000E+00  0.00000000E+00
  0.00000000E+00  0.00000000E+00  0.00000000E+00
  0.00000000E+00  0.00000000E+00  0.00000000E+00
  0.00000000E+00  0.00000000E+00  0.00000000E+00
  0.00000000E+00  0.00000000E+00  0.00000000E+00
  0.00000000E+00  0.00000000E+00  0.00000000E+00
  0.00000000E+00  0.00000000E+00  0.00000000E+00
  0.00000000E+00  0.00000000E+00  0.00000000E+00
  0.00000000E+00  0.00000000E+00  0.00000000E+00
  0.00000000E+00  0.00000000E+00  0.00000000E+00
  0.00000000E+00  0.00000000E+00  0.00000000E+00
  0.00000000E+00  0.00000000E+00  0.00000000E+00
  0.00000000E+00  0.00000000E+00  0.00000000E+00
  0.00000000E+00  0.00000000E+00  0.00000000E+00
  0.00000000E+00  0.00000000E+00  0.00000000E+00
  0.00000000E+00  0.00000000E+00  0.00000000E+00
  0.00000000E+00  0.00000000E+00  0.00000000E+00
  0.00000000E+00  0.00000000E+00  0.00000000E+00
  0.00000000E+00  0.00000000E+00  0.00000000E+00
  0.00000000E+00  0.00000000E+00  0.00000000E+00
  0.00000000E+00  0.00000000E+00  0.00000000E+00
  0.00000000E+00  0.00000000E+00  0.00000000E+00
  0.00000000E+00  0.00000000E+00  0.00000000E+00
