title                                   
    1.000000000000000     
    10.3080600765176769    0.0904475110304661   -0.0238781371575218
     0.0902984305555561   10.2430449824238625   -0.0395909407730941
    -0.0161245365610371   -0.0265378035988704    6.8220949602564396
   Hf   Mo   Nb   W    Zr
     4     3    11     3    15
Direct
  0.1763454762030637  0.1634435668966912  0.7445058678841444
  0.0082748466078390  0.6755999172485975 -0.0087366102620313
  0.6623455946071938  0.6834595433448264  0.5337392318786113
  0.6524224619995512  0.3183534123697945  0.4868352067219329
  0.8196241833911401  0.8361023242234235  0.7667774549046700
  0.1854635892979657  0.8353557601760880  0.2505205970293462
  0.3374623576306290  0.0002077638049206  0.0013152817446122
  0.3220138134654649  0.6753253626302340  0.0011327446578357
  0.1812636095008715  0.1612076045794233  0.2576642740936140
  0.8360927831681687  0.1600564374012194  0.2572541944718301
  0.6644206244249906 -0.0002611750718564 -0.0129207902496378
  0.3326552859709251  0.3277375809287538  0.0014776704867114
  0.3429987839515911  0.3257977305366448  0.5018040733527147
  0.4832758033980032  0.1563015009545308  0.7517006663478415
  0.1815712799795906  0.4979829431528414  0.7441757386763572
  0.4832038226436893  0.1484058710443599  0.2432515148388262
  0.0074939572968599  0.3292296644228406  0.4747465467095169
  0.3327221209685111  0.6794316198836620  0.5057240987020268
  0.3380668719407292  0.0007502499460058  0.4943559499685167
  0.6611200225946288  0.6824081567786386 -0.0321760935869520
  0.4892843961662053  0.8405888102142607  0.7613007247142763
  0.0035368163825717 -0.0099115329001150  0.4842818913178422
  0.1821600806588772  0.5022844556200498  0.2662316320216688
  0.4961024984515756  0.8349770108024251  0.2388886387887948
  0.0121263935041474  0.3321732330518957  0.0281812370723643
  0.8218141636891362  0.5080968048681708  0.2408283434801224
  0.1856467083172545  0.8478685241214055  0.7520314599194033
  0.8494846472034036  0.1790752175383701  0.7385202600553981
  0.6638701735107273 -0.0019562351677455  0.5129930196955138
  0.4952521357766486  0.5088945217471275  0.2414833166279453
  0.8126477880766119  0.8195010439305754  0.2319918548252258
  0.4908335601098278  0.5057741526057554  0.7613693476468277
 -0.0016931102767262 -0.0071019715999514  0.0102494758908077
  0.8327637786920243  0.4942541739547332  0.7506767633216217
  0.0001617653302786  0.6784137447290822  0.5093012018046408
  0.6571709153660283  0.3101722112323212  0.0085232144470600
 
  0.00000000E+00  0.00000000E+00  0.00000000E+00
  0.00000000E+00  0.00000000E+00  0.00000000E+00
  0.00000000E+00  0.00000000E+00  0.00000000E+00
  0.00000000E+00  0.00000000E+00  0.00000000E+00
  0.00000000E+00  0.00000000E+00  0.00000000E+00
  0.00000000E+00  0.00000000E+00  0.00000000E+00
  0.00000000E+00  0.00000000E+00  0.00000000E+00
  0.00000000E+00  0.00000000E+00  0.00000000E+00
  0.00000000E+00  0.00000000E+00  0.00000000E+00
  0.00000000E+00  0.00000000E+00  0.00000000E+00
  0.00000000E+00  0.00000000E+00  0.00000000E+00
  0.00000000E+00  0.00000000E+00  0.00000000E+00
  0.00000000E+00  0.00000000E+00  0.00000000E+00
  0.00000000E+00  0.00000000E+00  0.00000000E+00
  0.00000000E+00  0.00000000E+00  0.00000000E+00
  0.00000000E+00  0.00000000E+00  0.00000000E+00
  0.00000000E+00  0.00000000E+00  0.00000000E+00
  0.00000000E+00  0.00000000E+00  0.00000000E+00
  0.00000000E+00  0.00000000E+00  0.00000000E+00
  0.00000000E+00  0.00000000E+00  0.00000000E+00
  0.00000000E+00  0.00000000E+00  0.00000000E+00
  0.00000000E+00  0.00000000E+00  0.00000000E+00
  0.00000000E+00  0.00000000E+00  0.00000000E+00
  0.00000000E+00  0.00000000E+00  0.00000000E+00
  0.00000000E+00  0.00000000E+00  0.00000000E+00
  0.00000000E+00  0.00000000E+00  0.00000000E+00
  0.00000000E+00  0.00000000E+00  0.00000000E+00
  0.00000000E+00  0.00000000E+00  0.00000000E+00
  0.00000000E+00  0.00000000E+00  0.00000000E+00
  0.00000000E+00  0.00000000E+00  0.00000000E+00
  0.00000000E+00  0.00000000E+00  0.00000000E+00
  0.00000000E+00  0.00000000E+00  0.00000000E+00
  0.00000000E+00  0.00000000E+00  0.00000000E+00
  0.00000000E+00  0.00000000E+00  0.00000000E+00
  0.00000000E+00  0.00000000E+00  0.00000000E+00
  0.00000000E+00  0.00000000E+00  0.00000000E+00
