title                                   
    1.000000000000000     
     9.7616036215445519    0.0209309361122487    0.0049186410239435
     0.0209391018843735    9.7844778475135978   -0.0163520147161893
     0.0032649270961894   -0.0108953493631515    6.5246830912554348
   Hf   Mo   Nb   Ta   W 
     3    11    15     3     4
Direct
  0.8300849450258325  0.8355556816946957  0.7538369632616921
  0.8308463919602093  0.1675569858823209  0.7546171624093967
  0.5059885183370537  0.1683255011367130  0.2420353553576694
  0.0017033426570273  0.3366222512338162  0.0056854037022591
  0.3316667624697958  0.6662677310294113  0.4990210833599178
  0.6676400654253956  0.3369927675997283  0.0014074174107725
  0.8328521473355619  0.4959970763836129  0.2506576362853749
  0.1661457114467541  0.5009704751071665  0.7502899315339491
  0.5012900471021136  0.8356607650109892  0.2521554921256938
  0.1683747566185647  0.8305602399373121  0.2531498540362409
  0.5007456765074589  0.4991816390358747  0.2517654004338629
  0.5065907580284723  0.1672399584100665  0.7446454427900280
  0.8285804963809095  0.1672843004794245  0.2484491868728672
  0.6653351771537332 -0.0019995819078668  0.0040958706614582
  0.6631093550970347  0.6645105632285099  0.4914746619497016
  0.0034986566271029 -0.0012489099911920  0.0130602790270560
  0.5000763308849357  0.8346091013054818  0.7476784608025283
  0.0023661689346233 -0.0016569508248462  0.4887289410480258
  0.1654552652905791  0.1672145670272742  0.7497245230445216
  0.1663825392305679  0.1705576659285606  0.2460661873085617
  0.0018248044905748  0.6625740791957058  0.4940749914279047
  0.6618287069473081  0.6644091857377857  0.0130132392358908
  0.5012067732508766  0.4994864684308454  0.7477803774391357
  0.3329530939711522  0.3394287495001741  0.5023848205140561
  0.3334414094054325 -0.0043881910233673 -0.0033764090232306
  0.0030995344777713  0.6630281861172588  0.0115814435273552
  0.3346757326186137 -0.0027904166936133  0.4980559321132393
  0.0012403643518352  0.3368156511385120  0.4946402850025864
  0.3316748635255781  0.3407338811120736 -0.0084132799017956
  0.3319811252928894  0.6657531825315179  0.0068720199214453
  0.1670990635815697  0.8309880714198423  0.7477819740285770
  0.8309499364475608  0.4927034547676063  0.7552666739933551
  0.1667532287140628  0.5004457046913524  0.2512457546085881
  0.6677346605396034  0.3366300315689595  0.4951288289593072
  0.6651075842131400 -0.0014644613781470  0.4931566148466952
  0.8296960056583065  0.8354445951764407  0.2522614798853134
 
  0.00000000E+00  0.00000000E+00  0.00000000E+00
  0.00000000E+00  0.00000000E+00  0.00000000E+00
  0.00000000E+00  0.00000000E+00  0.00000000E+00
  0.00000000E+00  0.00000000E+00  0.00000000E+00
  0.00000000E+00  0.00000000E+00  0.00000000E+00
  0.00000000E+00  0.00000000E+00  0.00000000E+00
  0.00000000E+00  0.00000000E+00  0.00000000E+00
  0.00000000E+00  0.00000000E+00  0.00000000E+00
  0.00000000E+00  0.00000000E+00  0.00000000E+00
  0.00000000E+00  0.00000000E+00  0.00000000E+00
  0.00000000E+00  0.00000000E+00  0.00000000E+00
  0.00000000E+00  0.00000000E+00  0.00000000E+00
  0.00000000E+00  0.00000000E+00  0.00000000E+00
  0.00000000E+00  0.00000000E+00  0.00000000E+00
  0.00000000E+00  0.00000000E+00  0.00000000E+00
  0.00000000E+00  0.00000000E+00  0.00000000E+00
  0.00000000E+00  0.00000000E+00  0.00000000E+00
  0.00000000E+00  0.00000000E+00  0.00000000E+00
  0.00000000E+00  0.00000000E+00  0.00000000E+00
  0.00000000E+00  0.00000000E+00  0.00000000E+00
  0.00000000E+00  0.00000000E+00  0.00000000E+00
  0.00000000E+00  0.00000000E+00  0.00000000E+00
  0.00000000E+00  0.00000000E+00  0.00000000E+00
  0.00000000E+00  0.00000000E+00  0.00000000E+00
  0.00000000E+00  0.00000000E+00  0.00000000E+00
  0.00000000E+00  0.00000000E+00  0.00000000E+00
  0.00000000E+00  0.00000000E+00  0.00000000E+00
  0.00000000E+00  0.00000000E+00  0.00000000E+00
  0.00000000E+00  0.00000000E+00  0.00000000E+00
  0.00000000E+00  0.00000000E+00  0.00000000E+00
  0.00000000E+00  0.00000000E+00  0.00000000E+00
  0.00000000E+00  0.00000000E+00  0.00000000E+00
  0.00000000E+00  0.00000000E+00  0.00000000E+00
  0.00000000E+00  0.00000000E+00  0.00000000E+00
  0.00000000E+00  0.00000000E+00  0.00000000E+00
  0.00000000E+00  0.00000000E+00  0.00000000E+00
