title                                   
    1.000000000000000     
     9.8154310851589521    0.2757671753136368    0.0826127279728803
     0.2805491899709198    9.8641547468840152    0.0186626405540684
     0.0529553610112398    0.0131974035755898    6.8336144258724767
   Cr   Hf   Mo   Nb   Zr
    12    15     1     2     6
Direct
  0.6423580842706168  0.2796229212090391  0.4374327505790622
  0.5150255774989511  0.1503510329673322  0.2529559169059986
  0.6579921691473195 -0.0137567047885264  0.0579357897931794
  0.1667524509387141  0.1824879448790001  0.7436890047659641
  0.1734986787549115  0.5254361292287579  0.7561903369391805
  0.6640620944468471 -0.0122164699204770  0.4427566807074684
  0.8058081520720336  0.2099959172096093  0.6730774252619693
  0.8087964231055518  0.8666697599764609  0.2448480215420716
  0.8408603332437621  0.4905364652831292  0.7379307521131532
  0.5188286050171350  0.4774337832931767  0.2729512734000941
  0.8152757817763817  0.1597682355887258  0.2834916179746489
  0.1661740967501971  0.4944365446964495  0.2631395584385783
  0.5060603803149949  0.8377993279624071  0.7563022773965067
 -0.0100882769863708  0.6562020774464481  0.0203640326886879
 -0.0000098602288398  0.6598829557212995  0.5070602971061932
  0.1589924196948056  0.8293011854013623  0.7714472984299157
  0.6743296380382987  0.6856076899466031  0.4770727706732254
  0.3395383735678678  0.6482003870076537  0.0216075123229365
  0.0112724398204772  0.3509251374613054 -0.0184452566530246
  0.1498760956573869  0.8558551945973438  0.2326233767176044
  0.3383348168384074  0.6549545800178461  0.4848359666540182
  0.5528400108049533  0.4708917864131263  0.7032540370288654
 -0.0152254736278862  0.0216813542306348  0.5101500882071529
  0.7994703412702747  0.8678018031132755  0.7600882325949191
  0.6887459881266959  0.3066916483519000  0.0153730619590365
  0.3281578284371002  0.0112524619519426  0.4968607657107308
  0.3367224513265684  0.3336290314649769  0.4945978264114896
  0.5012268925845258  0.8373583877301626  0.2425243773676234
  0.0328670486415147  0.3363193575451112  0.5404237458089710
  0.1527301027157501  0.1720410716726969  0.2479871025335620
  0.8261339591321178  0.4498104179058694  0.3255025771126960
  0.6731823839221128  0.6505779162331745  0.0147179976545261
 -0.0384220787826505  0.0493045995805679 -0.0208414286500812
  0.5411210161325422  0.1399162086633745  0.7424330562972331
  0.3428270790262100  0.3400891319281565  0.0043985753659066
  0.3338839765507240  0.0231407280300834  0.0032625808399365
 
  0.00000000E+00  0.00000000E+00  0.00000000E+00
  0.00000000E+00  0.00000000E+00  0.00000000E+00
  0.00000000E+00  0.00000000E+00  0.00000000E+00
  0.00000000E+00  0.00000000E+00  0.00000000E+00
  0.00000000E+00  0.00000000E+00  0.00000000E+00
  0.00000000E+00  0.00000000E+00  0.00000000E+00
  0.00000000E+00  0.00000000E+00  0.00000000E+00
  0.00000000E+00  0.00000000E+00  0.00000000E+00
  0.00000000E+00  0.00000000E+00  0.00000000E+00
  0.00000000E+00  0.00000000E+00  0.00000000E+00
  0.00000000E+00  0.00000000E+00  0.00000000E+00
  0.00000000E+00  0.00000000E+00  0.00000000E+00
  0.00000000E+00  0.00000000E+00  0.00000000E+00
  0.00000000E+00  0.00000000E+00  0.00000000E+00
  0.00000000E+00  0.00000000E+00  0.00000000E+00
  0.00000000E+00  0.00000000E+00  0.00000000E+00
  0.00000000E+00  0.00000000E+00  0.00000000E+00
  0.00000000E+00  0.00000000E+00  0.00000000E+00
  0.00000000E+00  0.00000000E+00  0.00000000E+00
  0.00000000E+00  0.00000000E+00  0.00000000E+00
  0.00000000E+00  0.00000000E+00  0.00000000E+00
  0.00000000E+00  0.00000000E+00  0.00000000E+00
  0.00000000E+00  0.00000000E+00  0.00000000E+00
  0.00000000E+00  0.00000000E+00  0.00000000E+00
  0.00000000E+00  0.00000000E+00  0.00000000E+00
  0.00000000E+00  0.00000000E+00  0.00000000E+00
  0.00000000E+00  0.00000000E+00  0.00000000E+00
  0.00000000E+00  0.00000000E+00  0.00000000E+00
  0.00000000E+00  0.00000000E+00  0.00000000E+00
  0.00000000E+00  0.00000000E+00  0.00000000E+00
  0.00000000E+00  0.00000000E+00  0.00000000E+00
  0.00000000E+00  0.00000000E+00  0.00000000E+00
  0.00000000E+00  0.00000000E+00  0.00000000E+00
  0.00000000E+00  0.00000000E+00  0.00000000E+00
  0.00000000E+00  0.00000000E+00  0.00000000E+00
  0.00000000E+00  0.00000000E+00  0.00000000E+00
