title                                   
    1.000000000000000     
    10.0808068872536616    0.0037279241079543    0.0094166371650358
     0.0036150726927589    9.9739224208262769    0.0252960902175972
     0.0063279249737678    0.0168079400186590    6.6277679126305182
   Hf   Nb   Ti   W    Zr
    11     3     3    15     4
Direct
  0.3299733775743732  0.0075498120452323 -0.0141295276043612
  0.1663960130258452  0.5067361419283438  0.2538896238456334
  0.4880721332295703  0.8244427034048818  0.2607653585702179
  0.3395030056637457  0.3302204625326892  0.0107651890560261
  0.8345690434396205  0.1783369085022795  0.7544052469115766
  0.1602742735767622  0.5029420043962760  0.7461771476424343
  0.6723270669615128  0.6657322783872786 -0.0022989040050799
 -0.0039765592423185 -0.0062786805604498  0.4953833542959566
 -0.0151739398642245  0.6696923406023132 -0.0102889961160153
  0.1483701584692426  0.1736631701084844  0.7505007531887188
  0.1739358413179552  0.8249078331733630  0.2477381833556566
  0.5060954600838057  0.4986684708306041  0.7479057555432952
  0.3425883852893247  0.6605575630696866  0.5091293831064667
  0.4933156263191366  0.8235284974420584  0.7361024973287722
 -0.0151752497878944  0.3390636787781154  0.0230810905344911
  0.5206105235507776  0.1799700820559911  0.7445890443998626
 -0.0166226549065893  0.6770537051427559  0.5116015513396881
  0.6730172433768433  0.3460424978806623  0.0072621729434205
  0.1699184295057282  0.8345487729474227  0.7485439015114626
  0.6753796984381594  0.6604718275342272  0.5008693219003512
  0.8343881993228617  0.8320231041856521  0.7451068450915386
  0.3168616158599817 -0.0022205613531766  0.5091634121433340
  0.8354688494974658  0.1776526774364169  0.2445104940965781
  0.3422724685891190  0.6626367653497307 -0.0100232201125385
  0.6711128251240092  0.3436812695754706  0.4964985575908953
  0.5096383499825134  0.5024833977154208  0.2543062522274890
  0.8276280934037675  0.4930114249534152  0.7406452795425974
  0.1572952674345337  0.1605256260840849  0.2515158929986465
 -0.0010259869061003 -0.0030481082366320  0.0060804855515993
  0.8298031215207656  0.4964290236129822  0.2600452181144118
 -0.0113739719676201  0.3349937928714944  0.4802893968991738
  0.8394897255136854  0.8298102731836217  0.2488951441809028
  0.6766585781989402 -0.0093069533989356 -0.0018907607088520
  0.6793452499412891 -0.0089915061506334  0.4966489807650142
  0.3372420966145123  0.3275293411322990  0.4925156052267296
  0.5117976418488999  0.1649403628365735  0.2637002686439052
 
  0.00000000E+00  0.00000000E+00  0.00000000E+00
  0.00000000E+00  0.00000000E+00  0.00000000E+00
  0.00000000E+00  0.00000000E+00  0.00000000E+00
  0.00000000E+00  0.00000000E+00  0.00000000E+00
  0.00000000E+00  0.00000000E+00  0.00000000E+00
  0.00000000E+00  0.00000000E+00  0.00000000E+00
  0.00000000E+00  0.00000000E+00  0.00000000E+00
  0.00000000E+00  0.00000000E+00  0.00000000E+00
  0.00000000E+00  0.00000000E+00  0.00000000E+00
  0.00000000E+00  0.00000000E+00  0.00000000E+00
  0.00000000E+00  0.00000000E+00  0.00000000E+00
  0.00000000E+00  0.00000000E+00  0.00000000E+00
  0.00000000E+00  0.00000000E+00  0.00000000E+00
  0.00000000E+00  0.00000000E+00  0.00000000E+00
  0.00000000E+00  0.00000000E+00  0.00000000E+00
  0.00000000E+00  0.00000000E+00  0.00000000E+00
  0.00000000E+00  0.00000000E+00  0.00000000E+00
  0.00000000E+00  0.00000000E+00  0.00000000E+00
  0.00000000E+00  0.00000000E+00  0.00000000E+00
  0.00000000E+00  0.00000000E+00  0.00000000E+00
  0.00000000E+00  0.00000000E+00  0.00000000E+00
  0.00000000E+00  0.00000000E+00  0.00000000E+00
  0.00000000E+00  0.00000000E+00  0.00000000E+00
  0.00000000E+00  0.00000000E+00  0.00000000E+00
  0.00000000E+00  0.00000000E+00  0.00000000E+00
  0.00000000E+00  0.00000000E+00  0.00000000E+00
  0.00000000E+00  0.00000000E+00  0.00000000E+00
  0.00000000E+00  0.00000000E+00  0.00000000E+00
  0.00000000E+00  0.00000000E+00  0.00000000E+00
  0.00000000E+00  0.00000000E+00  0.00000000E+00
  0.00000000E+00  0.00000000E+00  0.00000000E+00
  0.00000000E+00  0.00000000E+00  0.00000000E+00
  0.00000000E+00  0.00000000E+00  0.00000000E+00
  0.00000000E+00  0.00000000E+00  0.00000000E+00
  0.00000000E+00  0.00000000E+00  0.00000000E+00
  0.00000000E+00  0.00000000E+00  0.00000000E+00
