title                                   
    1.000000000000000     
     9.7447757045979380   -0.0191559380414484   -0.0058538255051261
    -0.0191509664623629    9.7478992955123260   -0.0049587253718998
    -0.0038588730093780   -0.0032701461199732    6.5210197786678750
   Ta   Ti   V    W    Zr
    15     3     4    11     3
Direct
  0.3349614695175852 -0.0054596210367264  0.4998642246603860
  0.3304704845539806  0.3324033995479447  0.4945000084005204
 -0.0028534871237975 -0.0036809291323592  0.0039603557203680
  0.8306166203927237  0.8243452426671952  0.2544723325070598
  0.5101264716050485  0.5097080996519564  0.2547551144930379
  0.3315600199723037  0.6710970371163077 -0.0125463293408364
  0.4987788247581194  0.1637528374619452  0.2480917461403420
  0.1670050641155352  0.8343276766392064  0.2540328998745972
  0.3337140303079751  0.3344675144293631  0.0063325659230100
  0.6665717801332177 -0.0054478352918684  0.5020745554146607
 -0.0024051456336664  0.3341383071390675  0.4965866557808739
 -0.0040133395320084  0.6681577083053675 -0.0105203429707381
  0.6690940191797043 -0.0035822727076408  0.0006763513941742
  0.5005487604187289  0.1661107335380510  0.7512823458050729
  0.8349354497924215  0.1682242913855078  0.7490111134100225
  0.8269273508758420  0.5053899087005108  0.2515064141302785
  0.5005782439834382  0.8217080168685326  0.2507398602836327
  0.6732002955444512  0.3309446787000300  0.0054013459967916
  0.3292681054768565  0.6778416963769169  0.5137854364835085
  0.1640129274625332  0.1610999750312225  0.2479986897089037
  0.6749846529760082  0.6717413811865031 -0.0153571142964416
  0.6732626996895350  0.6739357331676948  0.5133580494912210
  0.1638628434660912  0.5030344748957496  0.7468902085193631
 -0.0097034056400256  0.3342820878672483  0.0010295711475346
 -0.0031039566375365  0.6678933143436131  0.5098496321951116
  0.6732108990069182  0.3308522147837372  0.4954045251924283
 -0.0023805886828032 -0.0014376659620027  0.4962801830983519
  0.5010035091639334  0.8307248351496708  0.7488373646874205
  0.1665559412372133  0.8343260029292244  0.7466242084858146
  0.3340087132645119 -0.0048824706261129  0.0020483752335458
  0.8313306974492891  0.5013211629326068  0.7447825589900342
  0.8328734001139217  0.8302180601800805  0.7465312528975150
  0.8355131404988444  0.1676379694546245  0.2520290277462510
  0.1631577097328866  0.5041559033396819  0.2516384149463993
  0.5067256331344165  0.5043058861956413  0.7431567812003083
  0.1656001654258016  0.1663446447715102  0.7548916166494757
 
  0.00000000E+00  0.00000000E+00  0.00000000E+00
  0.00000000E+00  0.00000000E+00  0.00000000E+00
  0.00000000E+00  0.00000000E+00  0.00000000E+00
  0.00000000E+00  0.00000000E+00  0.00000000E+00
  0.00000000E+00  0.00000000E+00  0.00000000E+00
  0.00000000E+00  0.00000000E+00  0.00000000E+00
  0.00000000E+00  0.00000000E+00  0.00000000E+00
  0.00000000E+00  0.00000000E+00  0.00000000E+00
  0.00000000E+00  0.00000000E+00  0.00000000E+00
  0.00000000E+00  0.00000000E+00  0.00000000E+00
  0.00000000E+00  0.00000000E+00  0.00000000E+00
  0.00000000E+00  0.00000000E+00  0.00000000E+00
  0.00000000E+00  0.00000000E+00  0.00000000E+00
  0.00000000E+00  0.00000000E+00  0.00000000E+00
  0.00000000E+00  0.00000000E+00  0.00000000E+00
  0.00000000E+00  0.00000000E+00  0.00000000E+00
  0.00000000E+00  0.00000000E+00  0.00000000E+00
  0.00000000E+00  0.00000000E+00  0.00000000E+00
  0.00000000E+00  0.00000000E+00  0.00000000E+00
  0.00000000E+00  0.00000000E+00  0.00000000E+00
  0.00000000E+00  0.00000000E+00  0.00000000E+00
  0.00000000E+00  0.00000000E+00  0.00000000E+00
  0.00000000E+00  0.00000000E+00  0.00000000E+00
  0.00000000E+00  0.00000000E+00  0.00000000E+00
  0.00000000E+00  0.00000000E+00  0.00000000E+00
  0.00000000E+00  0.00000000E+00  0.00000000E+00
  0.00000000E+00  0.00000000E+00  0.00000000E+00
  0.00000000E+00  0.00000000E+00  0.00000000E+00
  0.00000000E+00  0.00000000E+00  0.00000000E+00
  0.00000000E+00  0.00000000E+00  0.00000000E+00
  0.00000000E+00  0.00000000E+00  0.00000000E+00
  0.00000000E+00  0.00000000E+00  0.00000000E+00
  0.00000000E+00  0.00000000E+00  0.00000000E+00
  0.00000000E+00  0.00000000E+00  0.00000000E+00
  0.00000000E+00  0.00000000E+00  0.00000000E+00
  0.00000000E+00  0.00000000E+00  0.00000000E+00
