title                                   
    1.000000000000000     
     9.2562277942561515   -0.0237893609371344    0.0073087519718716
    -0.0237978180288190    9.2376562869818084   -0.0050123519531811
     0.0048727150677474   -0.0033147045235702    6.1777089181647415
   Cr   Mo   V    Zr
    11    14     7     4
Direct
  0.1652679948958699  0.1696551472293961  0.2425872975926199
  0.5026169669038869  0.8352870521035692  0.7526520546394464
  0.0017724043338941  0.3320274498952487 -0.0017401845448601
  0.1645036468320811  0.4919942088829584  0.7445702736402686
 -0.0025016451073084  0.6592715497840743  0.4958088500653027
  0.1667772901914642  0.1724643159565490  0.7560591076454783
  0.5019439684575308  0.5025456482906758  0.7497045220391145
  0.6691163177939817 -0.0054987682223815 -0.0101296252022857
  0.8206783172010390  0.8355075615803977  0.7522824439186244
  0.8356943043789012  0.4960374406577512  0.7426064041816429
  0.1722348746015193  0.8321650344094316  0.2502761697107009
  0.6682233685514255 -0.0033867023929799  0.5120634995434014
  0.4995575923810329  0.8347711127120592  0.2487763989684256
 -0.0013814226267854  0.0060644684094959  0.0028474617950537
  0.3287972262710804 -0.0011552551941614 -0.0049148302976546
  0.1707536840675167  0.8315420114888328  0.7458626195195619
  0.3220562288589873  0.3298466637798875  0.5110851835733543
  0.3302044406135705  0.6681277404565856  0.5052498541556320
  0.3316228142194332  0.6675882739010447 -0.0075236602396463
  0.1614935163639335  0.4952498560651470  0.2548202984931294
  0.6715686280188118  0.6689123182367782  0.5155805424246864
  0.8283565421756519  0.8336714537472475  0.2472369225814193
  0.6786181670412746  0.3356098882839258  0.5125798659694835
  0.3215593625242893  0.3316527822192077 -0.0119640173145842
  0.6784664954749862  0.3373111140837933 -0.0097498668886778
  0.8325855267840184  0.1718971740678790  0.7609189462134706
  0.0022353572987395  0.3348573704144693  0.5089387219734639
  0.3287693294884067 -0.0049237697104767  0.5041968276946334
  0.8361266496923115  0.1744057859178584  0.2415167987774533
  0.6681477172631348  0.6763514444343065 -0.0122252937154255
  0.5012552940318845  0.1635344325367452  0.7534153200027841
  0.8370551746662384  0.4957382274731669  0.2587374435963954
  0.5043249178324836  0.5008498054163781  0.2494253525007860
  0.5025439130036805  0.1640311562912533  0.2477962556400260
  0.0029649889587521  0.0023753690476061  0.4990274827190233
 -0.0040099534377179  0.6636206377462789 -0.0083754413722479
 
  0.00000000E+00  0.00000000E+00  0.00000000E+00
  0.00000000E+00  0.00000000E+00  0.00000000E+00
  0.00000000E+00  0.00000000E+00  0.00000000E+00
  0.00000000E+00  0.00000000E+00  0.00000000E+00
  0.00000000E+00  0.00000000E+00  0.00000000E+00
  0.00000000E+00  0.00000000E+00  0.00000000E+00
  0.00000000E+00  0.00000000E+00  0.00000000E+00
  0.00000000E+00  0.00000000E+00  0.00000000E+00
  0.00000000E+00  0.00000000E+00  0.00000000E+00
  0.00000000E+00  0.00000000E+00  0.00000000E+00
  0.00000000E+00  0.00000000E+00  0.00000000E+00
  0.00000000E+00  0.00000000E+00  0.00000000E+00
  0.00000000E+00  0.00000000E+00  0.00000000E+00
  0.00000000E+00  0.00000000E+00  0.00000000E+00
  0.00000000E+00  0.00000000E+00  0.00000000E+00
  0.00000000E+00  0.00000000E+00  0.00000000E+00
  0.00000000E+00  0.00000000E+00  0.00000000E+00
  0.00000000E+00  0.00000000E+00  0.00000000E+00
  0.00000000E+00  0.00000000E+00  0.00000000E+00
  0.00000000E+00  0.00000000E+00  0.00000000E+00
  0.00000000E+00  0.00000000E+00  0.00000000E+00
  0.00000000E+00  0.00000000E+00  0.00000000E+00
  0.00000000E+00  0.00000000E+00  0.00000000E+00
  0.00000000E+00  0.00000000E+00  0.00000000E+00
  0.00000000E+00  0.00000000E+00  0.00000000E+00
  0.00000000E+00  0.00000000E+00  0.00000000E+00
  0.00000000E+00  0.00000000E+00  0.00000000E+00
  0.00000000E+00  0.00000000E+00  0.00000000E+00
  0.00000000E+00  0.00000000E+00  0.00000000E+00
  0.00000000E+00  0.00000000E+00  0.00000000E+00
  0.00000000E+00  0.00000000E+00  0.00000000E+00
  0.00000000E+00  0.00000000E+00  0.00000000E+00
  0.00000000E+00  0.00000000E+00  0.00000000E+00
  0.00000000E+00  0.00000000E+00  0.00000000E+00
  0.00000000E+00  0.00000000E+00  0.00000000E+00
  0.00000000E+00  0.00000000E+00  0.00000000E+00
