title                                   
    1.000000000000000     
     9.7595935677283787   -0.0508054655615398    0.0080970596600319
    -0.0508103949997390    9.7130469894747620    0.0073071557344996
     0.0053746435725751    0.0048867215040127    6.4812968034807596
   Hf   Mo   Ta   Ti   W 
     1    12    15     6     2
Direct
  0.1629741900609631  0.1668526035038862  0.2546183414640000
  0.6647910972640779  0.0026780168505285  0.5040949947953752
  0.8357250070420580  0.5007948626639581  0.2484236171140727
 -0.0058614226661809 -0.0078520114130936  0.5051040553681992
  0.6665653551046593  0.0004975686456576 -0.0040687106407262
 -0.0020323471618631  0.3362183307731934 -0.0042731645969703
  0.6711093214300482  0.6679732691745804  0.5020344665573120
 -0.0048697590707215  0.3404693584795283  0.5015175283224926
  0.5047483984212542  0.8352339953113044  0.7496303411082091
  0.8331822962558884  0.8343078111650860  0.7497695076392052
  0.8365270087145237  0.4999822523269771  0.7489075898833355
 -0.0059231176075135  0.6612923308011429  0.0000117152638395
  0.5034784446921499  0.1689780454166670  0.7464731554276498
  0.3398410256097531 -0.0060310036088490  0.5118041168179589
  0.5079361404378597  0.8342689298801741  0.2533653690001339
  0.1618567588434902  0.1664636724674465  0.7453846815290486
  0.1661078574326888  0.4968955713585797  0.2505089203015518
  0.5003317282941747  0.5046724624524576  0.7353142082837816
  0.8370462222104244  0.1642382287798445  0.7447218603353035
  0.3395678654087310  0.3342687351923032 -0.0073398787348900
  0.6691304873042999  0.6672400296954653 -0.0053876508722403
  0.6707065126285682  0.3396746960861367 -0.0064780994796108
  0.8322420727285363  0.8343146879370570  0.2549052714033157
  0.3335453420330481  0.6691872128693128 -0.0084043749409070
  0.8348628917482808  0.1645263369404649  0.2507701757047787
  0.3381115703416935 -0.0016838389975713 -0.0077103615295877
 -0.0027658745800201 -0.0072489362206321 -0.0038068401602587
  0.5047861063375623  0.1686260505569361  0.2523254824437903
  0.1563929365359486  0.8303381682329810  0.2480505677381064
  0.3291060485944028  0.6701496954222734  0.5101735899081727
  0.4978422561458551  0.5048970913791677  0.2586386391730988
 -0.0059511943178168  0.6574614630177129  0.5083655650091401
  0.1562548723349565  0.8295840884398775  0.7578252093548716
  0.6710179096302651  0.3383066556660608  0.4990838341469630
  0.1646438847879758  0.4965239678662187  0.7511175645875893
  0.3369721070299794  0.3358996008871650  0.5045287122738964
 
  0.00000000E+00  0.00000000E+00  0.00000000E+00
  0.00000000E+00  0.00000000E+00  0.00000000E+00
  0.00000000E+00  0.00000000E+00  0.00000000E+00
  0.00000000E+00  0.00000000E+00  0.00000000E+00
  0.00000000E+00  0.00000000E+00  0.00000000E+00
  0.00000000E+00  0.00000000E+00  0.00000000E+00
  0.00000000E+00  0.00000000E+00  0.00000000E+00
  0.00000000E+00  0.00000000E+00  0.00000000E+00
  0.00000000E+00  0.00000000E+00  0.00000000E+00
  0.00000000E+00  0.00000000E+00  0.00000000E+00
  0.00000000E+00  0.00000000E+00  0.00000000E+00
  0.00000000E+00  0.00000000E+00  0.00000000E+00
  0.00000000E+00  0.00000000E+00  0.00000000E+00
  0.00000000E+00  0.00000000E+00  0.00000000E+00
  0.00000000E+00  0.00000000E+00  0.00000000E+00
  0.00000000E+00  0.00000000E+00  0.00000000E+00
  0.00000000E+00  0.00000000E+00  0.00000000E+00
  0.00000000E+00  0.00000000E+00  0.00000000E+00
  0.00000000E+00  0.00000000E+00  0.00000000E+00
  0.00000000E+00  0.00000000E+00  0.00000000E+00
  0.00000000E+00  0.00000000E+00  0.00000000E+00
  0.00000000E+00  0.00000000E+00  0.00000000E+00
  0.00000000E+00  0.00000000E+00  0.00000000E+00
  0.00000000E+00  0.00000000E+00  0.00000000E+00
  0.00000000E+00  0.00000000E+00  0.00000000E+00
  0.00000000E+00  0.00000000E+00  0.00000000E+00
  0.00000000E+00  0.00000000E+00  0.00000000E+00
  0.00000000E+00  0.00000000E+00  0.00000000E+00
  0.00000000E+00  0.00000000E+00  0.00000000E+00
  0.00000000E+00  0.00000000E+00  0.00000000E+00
  0.00000000E+00  0.00000000E+00  0.00000000E+00
  0.00000000E+00  0.00000000E+00  0.00000000E+00
  0.00000000E+00  0.00000000E+00  0.00000000E+00
  0.00000000E+00  0.00000000E+00  0.00000000E+00
  0.00000000E+00  0.00000000E+00  0.00000000E+00
  0.00000000E+00  0.00000000E+00  0.00000000E+00
