title                                   
    1.000000000000000     
     9.6547854478470008    0.0185161295131348    0.0032727532532110
     0.0185507365185941    9.6131449520573717   -0.0172598460618187
     0.0022294954602618   -0.0122023888355235    6.4524692816508855
   Hf   Nb   V    W 
    10     4    19     3
Direct
  0.4977496579615639  0.1575992079111650  0.7531779560103756
 -0.0010840590331393  0.3270933763320857  0.4646408004223740
 -0.0001592486327716  0.0531583664687264  0.0218112754262435
  0.2952219433726551  0.3300327564502403 -0.0091335825511365
  0.3334351559647272  0.6656055490412063  0.0015371565091768
  0.7052681008851887  0.3233808006790961 -0.0052999890021682
  0.5056032118125056  0.4805174176845735  0.2586662328931060
  0.4986643989435329  0.1602266539093272  0.2593376634139696
  0.8402182839587287  0.8407686296391109  0.7592642078378081
  0.1559218840686263  0.8441453662082484  0.7492871207702967
  0.8399210425662155  0.5122534863654088  0.7439822205291637
  0.6685145362612199  0.6660149724537656  0.4980278711155744
  0.5073505563994648  0.8367847615759676  0.7536469402732269
  0.3299313553458450  0.6622668338597997  0.4996893962531892
  0.8327226108829516  0.8346170632031509  0.2477318254513731
  0.3288334933357678 -0.0129781951660363  0.4878943846419122
  0.1636535595467741  0.8390715083469583  0.2574125489887482
  0.0028857446609134  0.3652635463040518 -0.0153352233842028
  0.6789485146324462  0.3306346853151476  0.5228154971666765
  0.6713093469508294 -0.0124027571821493  0.4893551856774067
  0.8044602636977543  0.1426455317839244  0.2866891904899281
  0.8403770998208209  0.5251866244862324  0.2373198823591140
  0.1519295015275244  0.5176327167569190  0.2500020056688782
  0.6648821592711415  0.6684338305349442  0.0063648309788087
  0.3319943736014153 -0.0131304975279597  0.0210909403482877
  0.3165764168486827  0.3372484924608629  0.5233663008303879
  0.1538287847867060  0.5099050675736755  0.7333099457476255
  0.1961484423369693  0.1453594516303994  0.2824263155982249
  0.0006647294820766  0.0140823746462974  0.4824836190628025
  0.1756438527972682  0.1545092284718379  0.7129925901662879
  0.0032153666566252  0.6638346314867413  0.0165452821563809
  0.6704613729059997 -0.0113629523450967  0.0217188816231593
  0.8258080089129901  0.1524650509783604  0.7118213627500504
  0.5033187725480297  0.4880827940094739  0.7433651923880475
  0.0004120294284375  0.6681672294071690  0.4804515144813347
  0.5053687354935157  0.8328863962463740  0.2515426569075672
 
  0.00000000E+00  0.00000000E+00  0.00000000E+00
  0.00000000E+00  0.00000000E+00  0.00000000E+00
  0.00000000E+00  0.00000000E+00  0.00000000E+00
  0.00000000E+00  0.00000000E+00  0.00000000E+00
  0.00000000E+00  0.00000000E+00  0.00000000E+00
  0.00000000E+00  0.00000000E+00  0.00000000E+00
  0.00000000E+00  0.00000000E+00  0.00000000E+00
  0.00000000E+00  0.00000000E+00  0.00000000E+00
  0.00000000E+00  0.00000000E+00  0.00000000E+00
  0.00000000E+00  0.00000000E+00  0.00000000E+00
  0.00000000E+00  0.00000000E+00  0.00000000E+00
  0.00000000E+00  0.00000000E+00  0.00000000E+00
  0.00000000E+00  0.00000000E+00  0.00000000E+00
  0.00000000E+00  0.00000000E+00  0.00000000E+00
  0.00000000E+00  0.00000000E+00  0.00000000E+00
  0.00000000E+00  0.00000000E+00  0.00000000E+00
  0.00000000E+00  0.00000000E+00  0.00000000E+00
  0.00000000E+00  0.00000000E+00  0.00000000E+00
  0.00000000E+00  0.00000000E+00  0.00000000E+00
  0.00000000E+00  0.00000000E+00  0.00000000E+00
  0.00000000E+00  0.00000000E+00  0.00000000E+00
  0.00000000E+00  0.00000000E+00  0.00000000E+00
  0.00000000E+00  0.00000000E+00  0.00000000E+00
  0.00000000E+00  0.00000000E+00  0.00000000E+00
  0.00000000E+00  0.00000000E+00  0.00000000E+00
  0.00000000E+00  0.00000000E+00  0.00000000E+00
  0.00000000E+00  0.00000000E+00  0.00000000E+00
  0.00000000E+00  0.00000000E+00  0.00000000E+00
  0.00000000E+00  0.00000000E+00  0.00000000E+00
  0.00000000E+00  0.00000000E+00  0.00000000E+00
  0.00000000E+00  0.00000000E+00  0.00000000E+00
  0.00000000E+00  0.00000000E+00  0.00000000E+00
  0.00000000E+00  0.00000000E+00  0.00000000E+00
  0.00000000E+00  0.00000000E+00  0.00000000E+00
  0.00000000E+00  0.00000000E+00  0.00000000E+00
  0.00000000E+00  0.00000000E+00  0.00000000E+00
