title                                   
    1.000000000000000     
     9.1602008636822774    0.0530287130792521    0.0151045110619436
     0.0524805042411061    9.2053575669882690   -0.0109178476123916
     0.0100374222178508   -0.0078672472024401    6.0678563727031607
   Cr   Ti   W    Zr
    19    10     4     3
Direct
 -0.0101701319719532 -0.0022295347733977  0.5022397037525363
  0.6737726075135011 -0.0165087868954569  0.0072594864878527
  0.5172614141553550  0.8287577625856901  0.7490985251736968
  0.1504138053745069  0.8393669852675791  0.2453864895722066
  0.8294070650753164  0.8384617159785489  0.7428587627657728
  0.3270364248128190 -0.0096025251823430  0.0107308936079177
  0.6632172376711387  0.6802839602415262  0.4958488389273609
  0.4979305859788684  0.5126385391002009  0.7667494129913032
  0.0029575961499632  0.3317560704697292 -0.0018266659390947
 -0.0108428129058459  0.0000276959211246 -0.0025460914057267
  0.0107054714723715  0.3320861140034591  0.5058836643113168
  0.1623974218438827  0.4990393826431506  0.7516697441980359
  0.6607438355614684  0.6796146277803997 -0.0035841531120390
  0.5168576232397463  0.8276163369147210  0.2431862010351540
 -0.0010656517878196  0.6802021987948048  0.4920376465636461
  0.8451928870141178  0.1459581571314966  0.7603452130372470
  0.8275199750805627  0.8390858398374081  0.2555813095079907
  0.3305476953000521  0.3446027293954506 -0.0081843803897362
  0.6728935122865586 -0.0195459437338606  0.4994389814599269
  0.6716954650245039  0.3258549909264072  0.0073024242115161
  0.5093574476262270  0.5097451573584025  0.2333024067156769
  0.3346719073876432  0.6766915346923541 -0.0117111866897757
  0.3324157578059064  0.3471915706151650  0.5122024852019035
  0.1600478035897994  0.1711649260356453  0.2474294696714154
  0.1620346473920786  0.4960339447527168  0.2454699281360771
  0.3364332565255974  0.6705274796705413  0.5020687117218531
  0.3342936407951714 -0.0214063978282797  0.4859203113787230
  0.8447094012091783  0.1528605332997565  0.2531671502447849
  0.1500748874577864  0.8461709527713454  0.7418586209303123
  0.8407197743252200  0.5128141458120752  0.2513994613698030
  0.4973212950419601  0.1499204036933368  0.2417637979089580
  0.1582100061967315  0.1687752812350810  0.7602062870461428
  0.0012865972175271  0.6806969248483815  0.0002496054393783
  0.8378272829747846  0.5082375680021629  0.7456864974136233
  0.4952641925251934  0.1466031054412126  0.7635676014587255
  0.6668600750400817  0.3265065531934641  0.5079428452955164
 
  0.00000000E+00  0.00000000E+00  0.00000000E+00
  0.00000000E+00  0.00000000E+00  0.00000000E+00
  0.00000000E+00  0.00000000E+00  0.00000000E+00
  0.00000000E+00  0.00000000E+00  0.00000000E+00
  0.00000000E+00  0.00000000E+00  0.00000000E+00
  0.00000000E+00  0.00000000E+00  0.00000000E+00
  0.00000000E+00  0.00000000E+00  0.00000000E+00
  0.00000000E+00  0.00000000E+00  0.00000000E+00
  0.00000000E+00  0.00000000E+00  0.00000000E+00
  0.00000000E+00  0.00000000E+00  0.00000000E+00
  0.00000000E+00  0.00000000E+00  0.00000000E+00
  0.00000000E+00  0.00000000E+00  0.00000000E+00
  0.00000000E+00  0.00000000E+00  0.00000000E+00
  0.00000000E+00  0.00000000E+00  0.00000000E+00
  0.00000000E+00  0.00000000E+00  0.00000000E+00
  0.00000000E+00  0.00000000E+00  0.00000000E+00
  0.00000000E+00  0.00000000E+00  0.00000000E+00
  0.00000000E+00  0.00000000E+00  0.00000000E+00
  0.00000000E+00  0.00000000E+00  0.00000000E+00
  0.00000000E+00  0.00000000E+00  0.00000000E+00
  0.00000000E+00  0.00000000E+00  0.00000000E+00
  0.00000000E+00  0.00000000E+00  0.00000000E+00
  0.00000000E+00  0.00000000E+00  0.00000000E+00
  0.00000000E+00  0.00000000E+00  0.00000000E+00
  0.00000000E+00  0.00000000E+00  0.00000000E+00
  0.00000000E+00  0.00000000E+00  0.00000000E+00
  0.00000000E+00  0.00000000E+00  0.00000000E+00
  0.00000000E+00  0.00000000E+00  0.00000000E+00
  0.00000000E+00  0.00000000E+00  0.00000000E+00
  0.00000000E+00  0.00000000E+00  0.00000000E+00
  0.00000000E+00  0.00000000E+00  0.00000000E+00
  0.00000000E+00  0.00000000E+00  0.00000000E+00
  0.00000000E+00  0.00000000E+00  0.00000000E+00
  0.00000000E+00  0.00000000E+00  0.00000000E+00
  0.00000000E+00  0.00000000E+00  0.00000000E+00
  0.00000000E+00  0.00000000E+00  0.00000000E+00
