title                                   
    1.000000000000000     
     9.8788825042410355    0.0033554388942435    0.0131694700396597
     0.0033630867344094    9.8765561930223384    0.0209634319338200
     0.0088129551269820    0.0140029853046195    6.6184730221890549
   Nb   Ta   Ti
     8    18    10
Direct
  0.3299896695164091  0.6650507245997794  0.0013296838468012
  0.8288105688011680  0.4989320200424313  0.7494311818112254
  0.1708231126779926  0.8321790868548380  0.2493552668498733
  0.4976063534423739  0.1674274524573624  0.7487517915669871
  0.1680796417391813  0.5004822733459859  0.7494337896420523
  0.6656353049597615  0.6631689930432015  0.5015398268078229
  0.6652879649211628  0.3328618324349243 -0.0016884809597937
  0.0045707513612194  0.6659475928828524  0.5017189999430353
 -0.0010609320181709  0.6692081788468466 -0.0006513742854845
  0.3346056163204035 -0.0033248435961456  0.4984594253584924
  0.3367511614630325  0.3376432509941949  0.5051233305341999
  0.0037006007897393  0.3374248685240679 -0.0013944593014691
  0.8351696334514042  0.8370693867692862  0.7454403192109665
  0.5018180842830539  0.4989830665649068  0.2414609487911204
  0.4989150061929150  0.8271392535478969  0.7469247582337938
  0.6655659829106603  0.0074476555768163  0.5071958569532116
  0.1705579993609989  0.1701238409389698  0.2537859472730533
  0.1654844074886185  0.4981416087224290  0.2494149965088253
  0.8280118108011036  0.8310615995352153  0.2572053162732194
  0.1681932348545561  0.8387722979402639  0.7508457552579616
  0.0000349681891550  0.0005345993661513  0.4873745839418258
  0.8313646517304344  0.1701140160277457  0.2431124382401910
  0.3366842498883190  0.0051214932113844 -0.0010253108264558
 -0.0041099905765410  0.3336201983805964  0.5013807020268477
  0.8326228180293619  0.4992869590028171  0.2518855591536581
  0.6706926979766740  0.6708112851696770  0.0001775306638056
  0.5040664499494759  0.8348018430485751  0.2531692111597242
  0.0007380010511737 -0.0078548678187033  0.0158005126635376
  0.3298553433189829  0.3287957928138402 -0.0098778408707490
  0.4978268271822386  0.1667117101972578  0.2495029666928617
  0.1610216138056593  0.1615335682782520  0.7443473473311707
  0.6621532414457161 -0.0039806582405602 -0.0081966790039451
  0.5028271562395037  0.5063985330620943  0.7595822945805094
  0.6650020925585587  0.3270938620411271  0.5030542241437861
  0.8410272339108433  0.1648805879988741  0.7586384435294060
  0.3296766719828612  0.6663909374347483  0.4973911362579310
 
  0.00000000E+00  0.00000000E+00  0.00000000E+00
  0.00000000E+00  0.00000000E+00  0.00000000E+00
  0.00000000E+00  0.00000000E+00  0.00000000E+00
  0.00000000E+00  0.00000000E+00  0.00000000E+00
  0.00000000E+00  0.00000000E+00  0.00000000E+00
  0.00000000E+00  0.00000000E+00  0.00000000E+00
  0.00000000E+00  0.00000000E+00  0.00000000E+00
  0.00000000E+00  0.00000000E+00  0.00000000E+00
  0.00000000E+00  0.00000000E+00  0.00000000E+00
  0.00000000E+00  0.00000000E+00  0.00000000E+00
  0.00000000E+00  0.00000000E+00  0.00000000E+00
  0.00000000E+00  0.00000000E+00  0.00000000E+00
  0.00000000E+00  0.00000000E+00  0.00000000E+00
  0.00000000E+00  0.00000000E+00  0.00000000E+00
  0.00000000E+00  0.00000000E+00  0.00000000E+00
  0.00000000E+00  0.00000000E+00  0.00000000E+00
  0.00000000E+00  0.00000000E+00  0.00000000E+00
  0.00000000E+00  0.00000000E+00  0.00000000E+00
  0.00000000E+00  0.00000000E+00  0.00000000E+00
  0.00000000E+00  0.00000000E+00  0.00000000E+00
  0.00000000E+00  0.00000000E+00  0.00000000E+00
  0.00000000E+00  0.00000000E+00  0.00000000E+00
  0.00000000E+00  0.00000000E+00  0.00000000E+00
  0.00000000E+00  0.00000000E+00  0.00000000E+00
  0.00000000E+00  0.00000000E+00  0.00000000E+00
  0.00000000E+00  0.00000000E+00  0.00000000E+00
  0.00000000E+00  0.00000000E+00  0.00000000E+00
  0.00000000E+00  0.00000000E+00  0.00000000E+00
  0.00000000E+00  0.00000000E+00  0.00000000E+00
  0.00000000E+00  0.00000000E+00  0.00000000E+00
  0.00000000E+00  0.00000000E+00  0.00000000E+00
  0.00000000E+00  0.00000000E+00  0.00000000E+00
  0.00000000E+00  0.00000000E+00  0.00000000E+00
  0.00000000E+00  0.00000000E+00  0.00000000E+00
  0.00000000E+00  0.00000000E+00  0.00000000E+00
  0.00000000E+00  0.00000000E+00  0.00000000E+00
