title                                   
    1.000000000000000     
     9.4416366026095684   -0.0043084387477290   -0.0215359386748802
    -0.0041444457223626    9.5211451052785598    0.0125147332467428
    -0.0145052930843604    0.0083493158832277    6.3091160024121304
   Nb   Ti   V    Zr
     4    10    19     3
Direct
  0.6679938536516907  0.6691111117340860  0.0097487478634538
  0.1658414554339974  0.4947607348879894  0.2549179955160622
  0.4987204021477839  0.1607685237610214  0.7414954075899141
  0.4923959114694761  0.5090939126296755  0.7482602958544512
  0.4818619846712797  0.1706321406765643  0.2592806699174328
  0.1618394817245542  0.5063890589601096  0.7514391049641477
 -0.0022030091501402 -0.0116081361317257  0.0087090849220213
 -0.0237100981352205  0.3421809581878406  0.0021463098642247
  0.6755869424461055  0.0074561138539304  0.4641790668438138
  0.8278104969947813  0.8349521139506260  0.7494690461873317
  0.1650973187849542  0.1795019518839434  0.2607465382282751
  0.0058602520814185 -0.0138679823400761  0.4893141862634633
  0.5063253346569092  0.8325002608810536  0.7333814592452412
  0.6745383635995684  0.3393925433149052  0.5013428127251259
  0.3235784711907633 -0.0215175474641889  0.4895312219285746
  0.1692192201857110  0.8091327585049812  0.2671995572271153
  0.3451462289954809  0.3500089035091853  0.0057419677191504
  0.6709575425026888  0.6631995347345450  0.4890683721642979
  0.8416256948763990  0.5182579460192669  0.2666794354615701
  0.0029001076593182  0.6733831973397010  0.0071848543043817
  0.6794467523651707  0.0030043296104112  0.0155942264374122
  0.8455356806756095  0.5213224024546879  0.7371364852017686
 -0.0283106209396704  0.3411490971715950  0.4984963068647568
  0.3329783393978433  0.6683013281400052  0.4915514148810381
  0.3312878866056016  0.6658808934063170  0.0118577040480635
  0.8334536736687670  0.1506591957265674  0.7465028644902545
  0.5005242668755818  0.8228250241928574  0.2663925729236709
  0.3499381361221238  0.3481838770344209  0.4964580635892822
 -0.0008560771327792  0.6707923841218650  0.4950603565313205
  0.8523894423434047  0.1656968627539855  0.2526006346166274
  0.8331537473953990  0.8237341295765657  0.2437265609843656
  0.1695113179091684  0.8023168488689975  0.7352897518981583
  0.4909187693170960  0.5069629294824790  0.2557261377992851
  0.1638384062494926  0.1832017746448965  0.7417308965156930
  0.6721502444610836  0.3325668788493416  0.0042148233906446
  0.3226540788985894 -0.0203260549284232  0.0078250650376081
 
  0.00000000E+00  0.00000000E+00  0.00000000E+00
  0.00000000E+00  0.00000000E+00  0.00000000E+00
  0.00000000E+00  0.00000000E+00  0.00000000E+00
  0.00000000E+00  0.00000000E+00  0.00000000E+00
  0.00000000E+00  0.00000000E+00  0.00000000E+00
  0.00000000E+00  0.00000000E+00  0.00000000E+00
  0.00000000E+00  0.00000000E+00  0.00000000E+00
  0.00000000E+00  0.00000000E+00  0.00000000E+00
  0.00000000E+00  0.00000000E+00  0.00000000E+00
  0.00000000E+00  0.00000000E+00  0.00000000E+00
  0.00000000E+00  0.00000000E+00  0.00000000E+00
  0.00000000E+00  0.00000000E+00  0.00000000E+00
  0.00000000E+00  0.00000000E+00  0.00000000E+00
  0.00000000E+00  0.00000000E+00  0.00000000E+00
  0.00000000E+00  0.00000000E+00  0.00000000E+00
  0.00000000E+00  0.00000000E+00  0.00000000E+00
  0.00000000E+00  0.00000000E+00  0.00000000E+00
  0.00000000E+00  0.00000000E+00  0.00000000E+00
  0.00000000E+00  0.00000000E+00  0.00000000E+00
  0.00000000E+00  0.00000000E+00  0.00000000E+00
  0.00000000E+00  0.00000000E+00  0.00000000E+00
  0.00000000E+00  0.00000000E+00  0.00000000E+00
  0.00000000E+00  0.00000000E+00  0.00000000E+00
  0.00000000E+00  0.00000000E+00  0.00000000E+00
  0.00000000E+00  0.00000000E+00  0.00000000E+00
  0.00000000E+00  0.00000000E+00  0.00000000E+00
  0.00000000E+00  0.00000000E+00  0.00000000E+00
  0.00000000E+00  0.00000000E+00  0.00000000E+00
  0.00000000E+00  0.00000000E+00  0.00000000E+00
  0.00000000E+00  0.00000000E+00  0.00000000E+00
  0.00000000E+00  0.00000000E+00  0.00000000E+00
  0.00000000E+00  0.00000000E+00  0.00000000E+00
  0.00000000E+00  0.00000000E+00  0.00000000E+00
  0.00000000E+00  0.00000000E+00  0.00000000E+00
  0.00000000E+00  0.00000000E+00  0.00000000E+00
  0.00000000E+00  0.00000000E+00  0.00000000E+00
