title                                   
    1.000000000000000     
     9.6860415600301089   -0.0762405421110297    0.0346130915570367
    -0.0763080913071471    9.6880593934662844    0.0482738201794970
     0.0230264370696047    0.0320702580960511    6.4723612427692938
   Mo   Ta   Ti
    12    12    12
Direct
  0.8281023164552505  0.5014281019985969  0.7507650489504312
  0.8308302759082663  0.5003953245380788  0.2471923626536601
  0.3360063601287407  0.0024186031978044  0.5026870590474082
  0.3359579700018263  0.0024615945838364 -0.0038465706493183
  0.3301236215961044  0.3331651528366172 -0.0044390168436935
  0.8327229929337145  0.1681718868717061  0.2517235444228527
  0.4987899185458414  0.1656391011481746  0.7539243700101667
  0.4983426472265423  0.8316744775222004  0.2475507009323915
  0.1695980473325031  0.5003351647390979  0.7527814634169185
  0.8324930428561494  0.8280451044068293  0.2470648260141726
  0.6698071063381436  0.6685528723752764  0.0069431403026879
  0.1649714135553742  0.1671957728144113  0.7513526963848564
  0.1717476152125079  0.4955465311305496  0.2474633344143962
  0.1736245402174507  0.1686936772112488  0.2448057202449527
  0.3375824684537692  0.6658534833286428  0.5014726306362874
  0.8248425851961685  0.8379615630730977  0.7533619263020180
  0.6753196209180853  0.3289633836571994  0.0000815472749814
  0.3298130320761037  0.3337280392471479  0.5156344755132962
 -0.0014819582319073  0.6626035714141406 -0.0018042832167882
  0.1710799107786076  0.8428938605976842  0.7470138559735807
  0.1700048343981533  0.8396810873039793  0.2507680207607940
  0.3344138288958505  0.6697193900242592 -0.0002052259831811
  0.4917129721464477  0.1667582565175211  0.2509515775613577
  0.6729755960051076  0.3332788383512418  0.5005084244807373
 -0.0009295604906347  0.3351010777758755  0.5044802302801045
 -0.0072671521522948  0.0042540120902676  0.4847152331752390
  0.6698776979661564 -0.0050875544490297  0.4783235844139810
  0.8305167503230921  0.1500790875746278  0.7439855071200639
  0.6727875711201886  0.6673498816763448  0.4912439526881985
  0.5022401294284347  0.4993611940364719  0.7693908199890921
 -0.0039851529486175  0.3359219976436928 -0.0083388504880322
  0.6675367256543806 -0.0001436144069448  0.0204536227769842
 -0.0058689764193883  0.6600675881412913  0.5003098609676412
 -0.0070138447819063  0.0037293827452911  0.0116281095648971
  0.5003713824725781  0.4965471934721090  0.2368809174885171
  0.5023536708832120  0.8376549148106613  0.7531753834183490
 
  0.00000000E+00  0.00000000E+00  0.00000000E+00
  0.00000000E+00  0.00000000E+00  0.00000000E+00
  0.00000000E+00  0.00000000E+00  0.00000000E+00
  0.00000000E+00  0.00000000E+00  0.00000000E+00
  0.00000000E+00  0.00000000E+00  0.00000000E+00
  0.00000000E+00  0.00000000E+00  0.00000000E+00
  0.00000000E+00  0.00000000E+00  0.00000000E+00
  0.00000000E+00  0.00000000E+00  0.00000000E+00
  0.00000000E+00  0.00000000E+00  0.00000000E+00
  0.00000000E+00  0.00000000E+00  0.00000000E+00
  0.00000000E+00  0.00000000E+00  0.00000000E+00
  0.00000000E+00  0.00000000E+00  0.00000000E+00
  0.00000000E+00  0.00000000E+00  0.00000000E+00
  0.00000000E+00  0.00000000E+00  0.00000000E+00
  0.00000000E+00  0.00000000E+00  0.00000000E+00
  0.00000000E+00  0.00000000E+00  0.00000000E+00
  0.00000000E+00  0.00000000E+00  0.00000000E+00
  0.00000000E+00  0.00000000E+00  0.00000000E+00
  0.00000000E+00  0.00000000E+00  0.00000000E+00
  0.00000000E+00  0.00000000E+00  0.00000000E+00
  0.00000000E+00  0.00000000E+00  0.00000000E+00
  0.00000000E+00  0.00000000E+00  0.00000000E+00
  0.00000000E+00  0.00000000E+00  0.00000000E+00
  0.00000000E+00  0.00000000E+00  0.00000000E+00
  0.00000000E+00  0.00000000E+00  0.00000000E+00
  0.00000000E+00  0.00000000E+00  0.00000000E+00
  0.00000000E+00  0.00000000E+00  0.00000000E+00
  0.00000000E+00  0.00000000E+00  0.00000000E+00
  0.00000000E+00  0.00000000E+00  0.00000000E+00
  0.00000000E+00  0.00000000E+00  0.00000000E+00
  0.00000000E+00  0.00000000E+00  0.00000000E+00
  0.00000000E+00  0.00000000E+00  0.00000000E+00
  0.00000000E+00  0.00000000E+00  0.00000000E+00
  0.00000000E+00  0.00000000E+00  0.00000000E+00
  0.00000000E+00  0.00000000E+00  0.00000000E+00
  0.00000000E+00  0.00000000E+00  0.00000000E+00
