title                                   
    1.000000000000000     
    10.1186236484793177    0.0092410018154332    0.0026979941400366
     0.0092866565397858   10.0756001190438358   -0.0162610807380740
     0.0018126129329992   -0.0108827515027254    6.7592604468372048
   Hf   Nb   Ta   W    Zr
     7     7     7     8     7
Direct
  0.4894012408710396  0.5076299901610438  0.7341201389469080
  0.6680423744107030  0.3477842908646721 -0.0142179089826102
  0.8324220437157834  0.5025742525319307  0.2688776219066081
  0.8306206708451483  0.8389172771325489  0.7557191303779688
  0.3305669923648654  0.6761685707622487  0.0120189995992809
  0.3191967795029164 -0.0081505179236544  0.4867983991814066
  0.3218300648563622 -0.0065378758158237  0.0114829530211160
  0.0036623858379592  0.6740173849949452  0.0053042962189264
  0.3262889708145337  0.3282125094156957 -0.0023570599610478
  0.5143282946180616  0.8316601973579286  0.2576261388412087
  0.8273458742647726  0.5118450153256957  0.7340923331942832
  0.3281096640358259  0.3243645154305482  0.5019345959273281
  0.1574447072430906  0.1717179989980929  0.2509941399423363
  0.4997092973048468  0.5062337647840079  0.2702738170240485
  0.1555984104905513  0.8332929964281746  0.7544672445768981
  0.8352219491438937  0.1522313006845449  0.7462896773838955
  0.0063493923153038 -0.0056906667967003  0.4896319430922400
  0.1763120003272201  0.4980249924641788  0.7361757994373319
  0.1578584754266588  0.1668291424305416  0.7447884200815014
  0.6626864198666342  0.6627944632782439  0.0119850716052611
  0.6726190002821778  0.3367853782592398  0.5242213631351895
  0.1572725110538199  0.8324782345823907  0.2446572187487361
  0.0019357054278260  0.3272702232633468  0.5169292746286825
  0.8290007176699334  0.8401409648326102  0.2429966825878851
  0.0050791310516904 -0.0011370924421597  0.0013908661142369
  0.3270465978462296  0.6749537385173483  0.4894160980396715
  0.6769477845118368 -0.0072755597582902  0.0098193128522544
  0.6811163202447390 -0.0052031114226250  0.4916719175692471
  0.6688599253591326  0.6677729362730613  0.4912936256677662
  0.0028193995239007  0.6765549059502064  0.4916276912253713
  0.8348821956873360  0.1633101260883697  0.2515838051365292
 -0.0006345258963755  0.3379399242549689 -0.0167141776284341
  0.5100332164788970  0.1616730730259524  0.2545948874768919
  0.5106444140517743  0.8312083167253289  0.7414821411891109
  0.1709721880429471  0.4924502712174574  0.2593923667078323
  0.5084094104079641  0.1571580681239288  0.7496311751341407
 
  0.00000000E+00  0.00000000E+00  0.00000000E+00
  0.00000000E+00  0.00000000E+00  0.00000000E+00
  0.00000000E+00  0.00000000E+00  0.00000000E+00
  0.00000000E+00  0.00000000E+00  0.00000000E+00
  0.00000000E+00  0.00000000E+00  0.00000000E+00
  0.00000000E+00  0.00000000E+00  0.00000000E+00
  0.00000000E+00  0.00000000E+00  0.00000000E+00
  0.00000000E+00  0.00000000E+00  0.00000000E+00
  0.00000000E+00  0.00000000E+00  0.00000000E+00
  0.00000000E+00  0.00000000E+00  0.00000000E+00
  0.00000000E+00  0.00000000E+00  0.00000000E+00
  0.00000000E+00  0.00000000E+00  0.00000000E+00
  0.00000000E+00  0.00000000E+00  0.00000000E+00
  0.00000000E+00  0.00000000E+00  0.00000000E+00
  0.00000000E+00  0.00000000E+00  0.00000000E+00
  0.00000000E+00  0.00000000E+00  0.00000000E+00
  0.00000000E+00  0.00000000E+00  0.00000000E+00
  0.00000000E+00  0.00000000E+00  0.00000000E+00
  0.00000000E+00  0.00000000E+00  0.00000000E+00
  0.00000000E+00  0.00000000E+00  0.00000000E+00
  0.00000000E+00  0.00000000E+00  0.00000000E+00
  0.00000000E+00  0.00000000E+00  0.00000000E+00
  0.00000000E+00  0.00000000E+00  0.00000000E+00
  0.00000000E+00  0.00000000E+00  0.00000000E+00
  0.00000000E+00  0.00000000E+00  0.00000000E+00
  0.00000000E+00  0.00000000E+00  0.00000000E+00
  0.00000000E+00  0.00000000E+00  0.00000000E+00
  0.00000000E+00  0.00000000E+00  0.00000000E+00
  0.00000000E+00  0.00000000E+00  0.00000000E+00
  0.00000000E+00  0.00000000E+00  0.00000000E+00
  0.00000000E+00  0.00000000E+00  0.00000000E+00
  0.00000000E+00  0.00000000E+00  0.00000000E+00
  0.00000000E+00  0.00000000E+00  0.00000000E+00
  0.00000000E+00  0.00000000E+00  0.00000000E+00
  0.00000000E+00  0.00000000E+00  0.00000000E+00
  0.00000000E+00  0.00000000E+00  0.00000000E+00
