title                                   
    1.000000000000000     
     9.3403289856272345    0.0207940855333681    0.0127145226874470
     0.0208020158440494    9.3285993247685557    0.0088399222745403
     0.0084763756134625    0.0058823303861757    6.2267645806282026
   Mo   Nb   Ti   V    W 
    11     3     3    15     4
Direct
  0.1669670816724430  0.8365385443810792  0.7491761622034399
  0.3363461878451031 -0.0009231834333567 -0.0016715953678178
  0.6604489529337484 -0.0013804624672086  0.5033571532699638
  0.8352078112797998  0.1654033616829115  0.7509253014074534
  0.6664256015684484  0.3321968940632349  0.4989335046692870
  0.3367226194224078  0.3345193868149458  0.0003385981708167
  0.0036427636830042  0.6682796633080107 -0.0027411642117155
 -0.0019356148120582  0.3350095098335848  0.5014826437666998
  0.8360894529961516  0.4991725615568148  0.2547894933059402
  0.1644297865474283  0.5007183219533760  0.7491315112754184
 -0.0028619551218804  0.3334574366614931 -0.0005702181215500
  0.3339535367776857  0.3310934384423868  0.4985856052311031
  0.6660734763703532  0.6662409669494307 -0.0014511969309217
  0.8359999763958549  0.8348627332844678  0.2542196434206901
  0.1637309400855997  0.1648062054796233  0.2439469886826997
  0.6662198957036540  0.0058710508311090 -0.0005501790435515
  0.6665272477925058  0.3277162880887132  0.0035676960836914
  0.4946922750467831  0.8356071780217004  0.2566442025151066
  0.4988318210228166  0.8362446639286029  0.7437890293488998
  0.4952142950012438  0.1627170439763294  0.2556389171731416
 -0.0039923761365728  0.0012444343562088 -0.0049344373810283
  0.4983210438297159  0.5013294697388008  0.2518496518731035
  0.1675728912979123  0.1651875557053765  0.7559369634383101
  0.8373670209254370  0.1662363718865667  0.2554327452645084
  0.6671382385197380  0.6651558765505650  0.5007752978429804
  0.0015935617973350  0.6657716210115801  0.4995575449958541
  0.1666370230208074  0.5030141605886775  0.2464654041424600
  0.4945265595579018  0.1613021552954423  0.7476700068672667
  0.3336346270183359 -0.0033134745700209  0.5028035013374199
  0.8357637726675141  0.8296221485438171  0.7442427984311790
  0.8382694198721704  0.5013950559228967  0.7449440925496174
  0.1682883975633093  0.8355555705577073  0.2477569863959197
  0.0017615506881420 -0.0004913737791077  0.5043727427119256
  0.3339835882893174  0.6701105309256548  0.4954257370824099
  0.3344145628243615  0.6690423354111753  0.0037557261833209
  0.5019939660534825  0.5006859584974126  0.7464031414159601
 
  0.00000000E+00  0.00000000E+00  0.00000000E+00
  0.00000000E+00  0.00000000E+00  0.00000000E+00
  0.00000000E+00  0.00000000E+00  0.00000000E+00
  0.00000000E+00  0.00000000E+00  0.00000000E+00
  0.00000000E+00  0.00000000E+00  0.00000000E+00
  0.00000000E+00  0.00000000E+00  0.00000000E+00
  0.00000000E+00  0.00000000E+00  0.00000000E+00
  0.00000000E+00  0.00000000E+00  0.00000000E+00
  0.00000000E+00  0.00000000E+00  0.00000000E+00
  0.00000000E+00  0.00000000E+00  0.00000000E+00
  0.00000000E+00  0.00000000E+00  0.00000000E+00
  0.00000000E+00  0.00000000E+00  0.00000000E+00
  0.00000000E+00  0.00000000E+00  0.00000000E+00
  0.00000000E+00  0.00000000E+00  0.00000000E+00
  0.00000000E+00  0.00000000E+00  0.00000000E+00
  0.00000000E+00  0.00000000E+00  0.00000000E+00
  0.00000000E+00  0.00000000E+00  0.00000000E+00
  0.00000000E+00  0.00000000E+00  0.00000000E+00
  0.00000000E+00  0.00000000E+00  0.00000000E+00
  0.00000000E+00  0.00000000E+00  0.00000000E+00
  0.00000000E+00  0.00000000E+00  0.00000000E+00
  0.00000000E+00  0.00000000E+00  0.00000000E+00
  0.00000000E+00  0.00000000E+00  0.00000000E+00
  0.00000000E+00  0.00000000E+00  0.00000000E+00
  0.00000000E+00  0.00000000E+00  0.00000000E+00
  0.00000000E+00  0.00000000E+00  0.00000000E+00
  0.00000000E+00  0.00000000E+00  0.00000000E+00
  0.00000000E+00  0.00000000E+00  0.00000000E+00
  0.00000000E+00  0.00000000E+00  0.00000000E+00
  0.00000000E+00  0.00000000E+00  0.00000000E+00
  0.00000000E+00  0.00000000E+00  0.00000000E+00
  0.00000000E+00  0.00000000E+00  0.00000000E+00
  0.00000000E+00  0.00000000E+00  0.00000000E+00
  0.00000000E+00  0.00000000E+00  0.00000000E+00
  0.00000000E+00  0.00000000E+00  0.00000000E+00
  0.00000000E+00  0.00000000E+00  0.00000000E+00
