title                                   
    1.000000000000000     
    10.0177482561214912    0.0777932204825406   -0.0098849935702025
     0.0778123555413907   10.0871914215320828   -0.0215686603413107
    -0.0066070093687102   -0.0141667422795035    6.5671656750438379
   Ta   Ti   W    Zr
     9     9     9     9
Direct
  0.4993079872887908  0.1727835743478873  0.2389145320220811
  0.6615989452147759  0.0016496699434894  0.0031486330559783
  0.3297188356744915  0.3340722764877558  0.5007818420483597
  0.4963712400746281  0.4929918379000715  0.2504027736371665
  0.1643057268992080  0.8356517686812120  0.2474192599488382
  0.0125829281366456  0.3237597542130471  0.4970908888138003
  0.3253364680301630  0.6541171333800446 -0.0001230855656921
  0.1741549469394600  0.8333590699836559  0.7521116060744796
  0.5043075314341452  0.1761474282711077  0.7609456394634728
  0.6630638343496087  0.3055280857860914  0.4926740111752608
  0.4764926533220943  0.8257314168142488  0.7531546962375506
  0.3258675726971837  0.0150427360458003 -0.0036601162068136
  0.4950279211425625  0.4912501632733569  0.7528779023147862
  0.0139987872870898  0.0225442419868244  0.4937326541938072
  0.8333440552417429  0.1648899788664748  0.7578165506420641
  0.0149478302729869  0.3267717595683324  0.0009476475057663
  0.8514019279758890  0.8651893389563377  0.2443182485346293
  0.6715616128334266  0.0167258238037447  0.4897509996336507
  0.3243792859198538  0.6539434793726019  0.5040999872864840
  0.8334749418671799  0.1626496860030488  0.2410195231059726
  0.1765483192307559  0.4951622154518514  0.2514865800621875
  0.3252511007595404  0.3343541079973116  0.0006489365035222
  0.0142807003998466  0.0180514628441834  0.0063170649580523
  0.6574335711256992  0.3199858131986805  0.0059095036234116
  0.1667842136485414  0.1729568633279415  0.2431086049770189
  0.1649330444059561  0.1734840443108550  0.7570899751356923
  0.1782503979007901  0.4951143821048502  0.7491177600665846
  0.4833962945692723  0.8299655056664688  0.2534146738712264
  0.6663440285414632  0.6773355971208541  0.5059610630204087
  0.8209906517134553  0.4740308601320606  0.2420807119202948
  0.6678256261307112  0.6756119243007889 -0.0022659199514049
  0.8225794410414283  0.4739935049087333  0.7557502224679694
  0.0029597691180968  0.6565325259387140  0.4952319820857521
  0.0057477993503437  0.6570490032159051  0.0022171091018092
  0.8509350323648233  0.8591814725195690  0.7519471078427596
  0.3244949770973496  0.0123914932761016  0.5045604303930721
 
  0.00000000E+00  0.00000000E+00  0.00000000E+00
  0.00000000E+00  0.00000000E+00  0.00000000E+00
  0.00000000E+00  0.00000000E+00  0.00000000E+00
  0.00000000E+00  0.00000000E+00  0.00000000E+00
  0.00000000E+00  0.00000000E+00  0.00000000E+00
  0.00000000E+00  0.00000000E+00  0.00000000E+00
  0.00000000E+00  0.00000000E+00  0.00000000E+00
  0.00000000E+00  0.00000000E+00  0.00000000E+00
  0.00000000E+00  0.00000000E+00  0.00000000E+00
  0.00000000E+00  0.00000000E+00  0.00000000E+00
  0.00000000E+00  0.00000000E+00  0.00000000E+00
  0.00000000E+00  0.00000000E+00  0.00000000E+00
  0.00000000E+00  0.00000000E+00  0.00000000E+00
  0.00000000E+00  0.00000000E+00  0.00000000E+00
  0.00000000E+00  0.00000000E+00  0.00000000E+00
  0.00000000E+00  0.00000000E+00  0.00000000E+00
  0.00000000E+00  0.00000000E+00  0.00000000E+00
  0.00000000E+00  0.00000000E+00  0.00000000E+00
  0.00000000E+00  0.00000000E+00  0.00000000E+00
  0.00000000E+00  0.00000000E+00  0.00000000E+00
  0.00000000E+00  0.00000000E+00  0.00000000E+00
  0.00000000E+00  0.00000000E+00  0.00000000E+00
  0.00000000E+00  0.00000000E+00  0.00000000E+00
  0.00000000E+00  0.00000000E+00  0.00000000E+00
  0.00000000E+00  0.00000000E+00  0.00000000E+00
  0.00000000E+00  0.00000000E+00  0.00000000E+00
  0.00000000E+00  0.00000000E+00  0.00000000E+00
  0.00000000E+00  0.00000000E+00  0.00000000E+00
  0.00000000E+00  0.00000000E+00  0.00000000E+00
  0.00000000E+00  0.00000000E+00  0.00000000E+00
  0.00000000E+00  0.00000000E+00  0.00000000E+00
  0.00000000E+00  0.00000000E+00  0.00000000E+00
  0.00000000E+00  0.00000000E+00  0.00000000E+00
  0.00000000E+00  0.00000000E+00  0.00000000E+00
  0.00000000E+00  0.00000000E+00  0.00000000E+00
  0.00000000E+00  0.00000000E+00  0.00000000E+00
