title                                   
    1.000000000000000     
    10.4293753944481651    0.0095480257939088   -0.0077508558074313
     0.0082983464922810   10.4183270322993167   -0.0689305894100007
    -0.0053436236427885   -0.0446525026202746    6.9122389174643040
   Hf   V    Zr
    10     8    18
Direct
  0.0163100972553640  0.3341202349564191 -0.0317406040649949
  0.1500792612429117  0.1912979193526188  0.2882953079096621
  0.5097059542774924  0.1550635021515850  0.2227023433836246
  0.8109357764139195  0.8054150182960925  0.2253837961938077
  0.5225809080292881  0.1286321855956880  0.7805741105088481
  0.1793565880457342  0.5126950046040213  0.7302149421630399
  0.6463593086756105  0.3319720454296496  0.5236425921204932
  0.4950340032683033  0.5193532573117519  0.2616503705152992
  0.1995506485047421  0.8089783150966793  0.7534520950668648
  0.4821128184949450  0.5384806288293820  0.7459184019391577
  0.6898539276461909 -0.0001951872207815  0.0376564998108702
  0.6579030518655120  0.6742504010596254  0.4893572431156335
  0.3133994427328621  0.6616881744715123  0.0372827925032110
  0.1896710861227899  0.8145057675302813  0.2377128062392045
  0.0044545171498003  0.3298417444833413  0.5583074790328401
  0.3286325989420955  0.6924094190096197  0.4474438563813858
  0.1553300057766158  0.1760178893542400  0.7154636669234165
  0.6650031154457190  0.6346623261755280 -0.0004095631032559
  0.8306334733776151  0.5133350694029372  0.7302125008794335
  0.3508356813687085  0.3160611852231388  0.5306223836523377
  0.0156043249193662  0.6737298677088144  0.0035458740981365
  0.1690838403644525  0.5005934884613540  0.2694430135844362
  0.0037884938396807 -0.0063319065814345  0.0119678013312231
  0.8060512652164701  0.8261251080982709  0.7715698753585667
  0.0077433584975087 -0.0072449154726138  0.5094514356097539
  0.3243636971587007 -0.0092070483455685  0.4849759486365949
  0.6757492081351703 -0.0082938001598096  0.4697935622246920
  0.0048920360297355  0.6959162699496393  0.4888136724640674
  0.8294034590283791  0.5031208163356788  0.2650863295584922
  0.6536293431708199  0.3530819767591893 -0.0139366486354423
  0.3034640080670730  0.0151835475987825 -0.0040299831110381
  0.3316281055293329  0.3260271349987505 -0.0156377292659139
  0.5004138829257379  0.8231345435733911  0.7321420687221860
  0.8443770216708810  0.1863966864503024  0.2654260046478445
  0.8298119995950626  0.1632477439987917  0.7660048812443229
  0.5022536912154120  0.8259355855131302  0.2116408723611968
 
  0.00000000E+00  0.00000000E+00  0.00000000E+00
  0.00000000E+00  0.00000000E+00  0.00000000E+00
  0.00000000E+00  0.00000000E+00  0.00000000E+00
  0.00000000E+00  0.00000000E+00  0.00000000E+00
  0.00000000E+00  0.00000000E+00  0.00000000E+00
  0.00000000E+00  0.00000000E+00  0.00000000E+00
  0.00000000E+00  0.00000000E+00  0.00000000E+00
  0.00000000E+00  0.00000000E+00  0.00000000E+00
  0.00000000E+00  0.00000000E+00  0.00000000E+00
  0.00000000E+00  0.00000000E+00  0.00000000E+00
  0.00000000E+00  0.00000000E+00  0.00000000E+00
  0.00000000E+00  0.00000000E+00  0.00000000E+00
  0.00000000E+00  0.00000000E+00  0.00000000E+00
  0.00000000E+00  0.00000000E+00  0.00000000E+00
  0.00000000E+00  0.00000000E+00  0.00000000E+00
  0.00000000E+00  0.00000000E+00  0.00000000E+00
  0.00000000E+00  0.00000000E+00  0.00000000E+00
  0.00000000E+00  0.00000000E+00  0.00000000E+00
  0.00000000E+00  0.00000000E+00  0.00000000E+00
  0.00000000E+00  0.00000000E+00  0.00000000E+00
  0.00000000E+00  0.00000000E+00  0.00000000E+00
  0.00000000E+00  0.00000000E+00  0.00000000E+00
  0.00000000E+00  0.00000000E+00  0.00000000E+00
  0.00000000E+00  0.00000000E+00  0.00000000E+00
  0.00000000E+00  0.00000000E+00  0.00000000E+00
  0.00000000E+00  0.00000000E+00  0.00000000E+00
  0.00000000E+00  0.00000000E+00  0.00000000E+00
  0.00000000E+00  0.00000000E+00  0.00000000E+00
  0.00000000E+00  0.00000000E+00  0.00000000E+00
  0.00000000E+00  0.00000000E+00  0.00000000E+00
  0.00000000E+00  0.00000000E+00  0.00000000E+00
  0.00000000E+00  0.00000000E+00  0.00000000E+00
  0.00000000E+00  0.00000000E+00  0.00000000E+00
  0.00000000E+00  0.00000000E+00  0.00000000E+00
  0.00000000E+00  0.00000000E+00  0.00000000E+00
  0.00000000E+00  0.00000000E+00  0.00000000E+00
