title                                   
    1.000000000000000     
     9.4805383279837354    0.0640703361080872   -0.0227853621133924
     0.0640150801438184    9.5346904523867746   -0.0174017284548502
    -0.0152048474564457   -0.0115799161178220    6.3160686977677196
   Mo   Ta   Ti   V 
    14     4    11     7
Direct
  0.5004836121626584  0.1628824586551044  0.2463588799249617
  0.3346618989150155  0.0009136287664786  0.0029423823108670
  0.5039775033751568  0.1656679624342433  0.7522277981647559
  0.6614849413780128  0.3331488849247315  0.5035844468811189
  0.3393572882488303  0.6717692959104837  0.5009483682134123
  0.8335919339960497  0.8393591887766468  0.7556462839087232
 -0.0039143626474052  0.6703503244129003  0.0042875890779481
  0.1669676371023522  0.1519847810859473  0.7470366720675324
  0.3366920620998883  0.6709048665228173  0.0018769420089239
  0.4948436789902061  0.8329652627962894  0.7546996347188347
  0.3308246582960569  0.0014659974280536  0.4948048976141985
  0.0014446043359679 -0.0000168918099304  0.0032337814312436
  0.8313900124744199  0.8367391000736725  0.2439901059991218
  0.6631074734885661  0.6715943958446768 -0.0013366154803753
  0.6628577123261427 -0.0047910162620002  0.4973160398546700
  0.1726509995234429  0.5131404691171273  0.2505615464671983
  0.8278264543035102  0.4953892734413072  0.7570458138866429
  0.8348214259314080  0.1699203404756536  0.2448984922531318
  0.0176286608295530  0.3239112489032904  0.5017762810965199
  0.3361492583344104  0.3246574847738889 -0.0014561484523918
 -0.0146023637077468  0.6811079137482405  0.4977568716004045
  0.8343729681976680  0.1709044808967964  0.7503415091537893
  0.3327082485411496  0.3251943186275634  0.5031159876131872
  0.1660453366710609  0.8319790556678109  0.7529565349526044
  0.6686036830438573  0.6757467030877142  0.5016265149152727
  0.8263339455497702  0.4938145392215692  0.2448504362254608
  0.5020182589502853  0.5038552966821910  0.2491448776854610
  0.1755397675201056  0.5172705703918503  0.7544332188756815
  0.0233902262845676  0.3279720202685514 -0.0022164649869562
  0.6609278282876737 -0.0002782648533617 -0.0004262467079022
  0.6506599611354384  0.3269251056312732 -0.0047003871443040
  0.5036760801107693  0.5037606728140402  0.7560038713560211
  0.4900399113433862  0.8288520268566936  0.2438416888987164
  0.1667789222239517  0.8369352334510570  0.2480383787502616
  0.0003240591916433 -0.0038661465960153  0.4944029219962870
  0.1663357131921790  0.1478694178326429  0.2503870948689775
 
  0.00000000E+00  0.00000000E+00  0.00000000E+00
  0.00000000E+00  0.00000000E+00  0.00000000E+00
  0.00000000E+00  0.00000000E+00  0.00000000E+00
  0.00000000E+00  0.00000000E+00  0.00000000E+00
  0.00000000E+00  0.00000000E+00  0.00000000E+00
  0.00000000E+00  0.00000000E+00  0.00000000E+00
  0.00000000E+00  0.00000000E+00  0.00000000E+00
  0.00000000E+00  0.00000000E+00  0.00000000E+00
  0.00000000E+00  0.00000000E+00  0.00000000E+00
  0.00000000E+00  0.00000000E+00  0.00000000E+00
  0.00000000E+00  0.00000000E+00  0.00000000E+00
  0.00000000E+00  0.00000000E+00  0.00000000E+00
  0.00000000E+00  0.00000000E+00  0.00000000E+00
  0.00000000E+00  0.00000000E+00  0.00000000E+00
  0.00000000E+00  0.00000000E+00  0.00000000E+00
  0.00000000E+00  0.00000000E+00  0.00000000E+00
  0.00000000E+00  0.00000000E+00  0.00000000E+00
  0.00000000E+00  0.00000000E+00  0.00000000E+00
  0.00000000E+00  0.00000000E+00  0.00000000E+00
  0.00000000E+00  0.00000000E+00  0.00000000E+00
  0.00000000E+00  0.00000000E+00  0.00000000E+00
  0.00000000E+00  0.00000000E+00  0.00000000E+00
  0.00000000E+00  0.00000000E+00  0.00000000E+00
  0.00000000E+00  0.00000000E+00  0.00000000E+00
  0.00000000E+00  0.00000000E+00  0.00000000E+00
  0.00000000E+00  0.00000000E+00  0.00000000E+00
  0.00000000E+00  0.00000000E+00  0.00000000E+00
  0.00000000E+00  0.00000000E+00  0.00000000E+00
  0.00000000E+00  0.00000000E+00  0.00000000E+00
  0.00000000E+00  0.00000000E+00  0.00000000E+00
  0.00000000E+00  0.00000000E+00  0.00000000E+00
  0.00000000E+00  0.00000000E+00  0.00000000E+00
  0.00000000E+00  0.00000000E+00  0.00000000E+00
  0.00000000E+00  0.00000000E+00  0.00000000E+00
  0.00000000E+00  0.00000000E+00  0.00000000E+00
  0.00000000E+00  0.00000000E+00  0.00000000E+00
