title                                   
    1.000000000000000     
     9.8979320235465345   -0.0161325259284431   -0.1087326674079258
    -0.0160287822630578    9.9594222475904495    0.0733145011610404
    -0.0724465369995118    0.0489367494850397    6.6543145446042713
   Cr   Hf   Nb   Ta
     4     7    11    14
Direct
  0.8235091948613220  0.5037229409006684  0.2490161460086995
  0.1590453389342543  0.8405591811946858  0.2428673093168127
  0.8294110098806214  0.1642373748438333  0.2482033755839770
  0.1719598422563423  0.1587734809464132  0.7482778553626261
 -0.0069103860035359  0.3243710899007518  0.4851175403660192
  0.8322623861124819  0.8353993692724997  0.7526275402298653
  0.8309137195621586  0.8330464487878082  0.2620479335472379
  0.8334067980046528  0.1614147711261282  0.7613427189941157
  0.8403579953313245  0.5043029729996855  0.7546549935660350
  0.3277494046864879  0.6753300460333493  0.4969150774748498
  0.1756944507051213  0.4910630775877576  0.2338351208735616
  0.6554950840325302  0.6587371545192081  0.4962612222554158
  0.6761899689468457  0.3360976700330143  0.4825009697288350
  0.3328334999897720  0.6739503670092251 -0.0090631893405599
 -0.0052122242862509  0.3245071587870106  0.0152952387483858
  0.4950442580243318  0.1693977962465411  0.2509273568856030
  0.0136098493042201 -0.0019865379208597  0.0133741334674628
  0.6662068411794746  0.6529492268876633  0.0130296057453338
  0.0119311521374782  0.6702952930634802  0.4914871419910923
  0.3315955272064441  0.3259365904174259  0.5094274454874194
  0.3265302675462669 -0.0037901459216725  0.4968587063231884
  0.5056828656329238  0.4967135516478296  0.7488324705241580
  0.3275998473798524  0.0013999812719577 -0.0088515485246649
  0.5016074762740630  0.8349529799212182  0.2446745145200487
  0.4955738956772594  0.4973407407722171  0.2458921550093210
  0.5043406916167136  0.1663656836789255  0.7424704660267638
  0.0060538364721915  0.6728197029867431  0.0224687967953707
  0.1603688842365472  0.8356081290445427  0.7532654449963692
  0.3337484961044473  0.3220842887490332 -0.0222626280727254
  0.6613761529625398  0.0142847510964988  0.0211996807777298
  0.1587324298410102  0.4997140355994521  0.7591509765644738
  0.6746998006899659  0.3335376096199330  0.0217291782153716
  0.0099405669302606  0.0104724967067048  0.4968610254465670
  0.6625462829502657  0.0121923714356259  0.4842838742030751
  0.1713991337376660  0.1653490421486659  0.2429360000023791
  0.5047056610819485  0.8388493086060370  0.7523453508997847
 
  0.00000000E+00  0.00000000E+00  0.00000000E+00
  0.00000000E+00  0.00000000E+00  0.00000000E+00
  0.00000000E+00  0.00000000E+00  0.00000000E+00
  0.00000000E+00  0.00000000E+00  0.00000000E+00
  0.00000000E+00  0.00000000E+00  0.00000000E+00
  0.00000000E+00  0.00000000E+00  0.00000000E+00
  0.00000000E+00  0.00000000E+00  0.00000000E+00
  0.00000000E+00  0.00000000E+00  0.00000000E+00
  0.00000000E+00  0.00000000E+00  0.00000000E+00
  0.00000000E+00  0.00000000E+00  0.00000000E+00
  0.00000000E+00  0.00000000E+00  0.00000000E+00
  0.00000000E+00  0.00000000E+00  0.00000000E+00
  0.00000000E+00  0.00000000E+00  0.00000000E+00
  0.00000000E+00  0.00000000E+00  0.00000000E+00
  0.00000000E+00  0.00000000E+00  0.00000000E+00
  0.00000000E+00  0.00000000E+00  0.00000000E+00
  0.00000000E+00  0.00000000E+00  0.00000000E+00
  0.00000000E+00  0.00000000E+00  0.00000000E+00
  0.00000000E+00  0.00000000E+00  0.00000000E+00
  0.00000000E+00  0.00000000E+00  0.00000000E+00
  0.00000000E+00  0.00000000E+00  0.00000000E+00
  0.00000000E+00  0.00000000E+00  0.00000000E+00
  0.00000000E+00  0.00000000E+00  0.00000000E+00
  0.00000000E+00  0.00000000E+00  0.00000000E+00
  0.00000000E+00  0.00000000E+00  0.00000000E+00
  0.00000000E+00  0.00000000E+00  0.00000000E+00
  0.00000000E+00  0.00000000E+00  0.00000000E+00
  0.00000000E+00  0.00000000E+00  0.00000000E+00
  0.00000000E+00  0.00000000E+00  0.00000000E+00
  0.00000000E+00  0.00000000E+00  0.00000000E+00
  0.00000000E+00  0.00000000E+00  0.00000000E+00
  0.00000000E+00  0.00000000E+00  0.00000000E+00
  0.00000000E+00  0.00000000E+00  0.00000000E+00
  0.00000000E+00  0.00000000E+00  0.00000000E+00
  0.00000000E+00  0.00000000E+00  0.00000000E+00
  0.00000000E+00  0.00000000E+00  0.00000000E+00
