title                                   
    1.000000000000000     
     9.6252699131242245    0.1805372560308098   -0.0256360012568108
     0.1783408343788188    9.5022798552763401    0.0495090080085680
    -0.0169452531275793    0.0326258877361451    6.3965295895673862
   Cr   Hf   Nb   V    Zr
    11     3    15     4     3
Direct
  0.0049594472725993  0.6630529130538880  0.4810817170372496
  0.4958441407790507  0.8453616885187759  0.7389105819194878
  0.6739504013862150 -0.0081324874999405  0.5087477049923300
  0.6916803981371052  0.3148241119321403  0.0060282222083906
  0.0026832796826911  0.3307846318495936  0.4737388426888455
  0.1548123762752859  0.1715012725109668  0.2569845361005763
  0.1396227626445862  0.5141691711199363  0.2589496195280530
  0.1593242292885262  0.8424480465574216  0.7643882521993408
  0.0030556153004241  0.6672245439727990  0.0166985178844265
  0.3368160447680756 -0.0074934312644690  0.5207933324577719
  0.6640810689907224  0.6728949536281127  0.4932587134794146
  0.5127467805085957  0.4872243215089943  0.7462203969030422
  0.5083246282289419  0.1588983281329786  0.2565145889018973
  0.3250331132037930  0.6772420777979912  0.5158622926444405
  0.3242688801696256  0.6757902462314168  0.0052978896370923
  0.3258752802394844 -0.0008273567914474 -0.0043854844918929
  0.5028509079269760  0.8425381396716640  0.2713983661616521
  0.5136630907700729  0.4984194214137165  0.2622028648958270
  0.1573490197455454  0.8386726762174928  0.2505947960584959
  0.8411318190116417  0.8289471607151616  0.7368507045536817
 -0.0019850474917078  0.3273700923022109  0.0139065710066922
  0.1428140791690241  0.5146565446707773  0.7491413789785873
  0.5086646967891846  0.1579657477815045  0.7396778220608843
  0.1603760208148091  0.1656356481602384  0.7394445549471410
  0.6889537992336463  0.3207160219042059  0.4856344198355499
  0.3144141365590527  0.3355952285559948  0.4905806454663356
  0.8370398271437273  0.8280083145871686  0.2567379882883532
  0.6746367764364656 -0.0034376806498032 -0.0129985434083313
  0.0023775374906868  0.0064764635767926  0.4980795365607920
  0.8343868369231839  0.1662764303227542  0.2379361485187908
  0.8426911713414836  0.4945303365838281  0.2554073952715731
  0.8353591843460881  0.1620373430510718  0.7467744400236380
  0.0051991565867707 -0.0004427839463141 -0.0089493478336204
  0.3175531254319414  0.3403184965571189  0.0136006512178444
  0.6611152658015367  0.6723398677247245 -0.0019248783129941
  0.8383301490941487  0.4984134995405319  0.7368147616186381
 
  0.00000000E+00  0.00000000E+00  0.00000000E+00
  0.00000000E+00  0.00000000E+00  0.00000000E+00
  0.00000000E+00  0.00000000E+00  0.00000000E+00
  0.00000000E+00  0.00000000E+00  0.00000000E+00
  0.00000000E+00  0.00000000E+00  0.00000000E+00
  0.00000000E+00  0.00000000E+00  0.00000000E+00
  0.00000000E+00  0.00000000E+00  0.00000000E+00
  0.00000000E+00  0.00000000E+00  0.00000000E+00
  0.00000000E+00  0.00000000E+00  0.00000000E+00
  0.00000000E+00  0.00000000E+00  0.00000000E+00
  0.00000000E+00  0.00000000E+00  0.00000000E+00
  0.00000000E+00  0.00000000E+00  0.00000000E+00
  0.00000000E+00  0.00000000E+00  0.00000000E+00
  0.00000000E+00  0.00000000E+00  0.00000000E+00
  0.00000000E+00  0.00000000E+00  0.00000000E+00
  0.00000000E+00  0.00000000E+00  0.00000000E+00
  0.00000000E+00  0.00000000E+00  0.00000000E+00
  0.00000000E+00  0.00000000E+00  0.00000000E+00
  0.00000000E+00  0.00000000E+00  0.00000000E+00
  0.00000000E+00  0.00000000E+00  0.00000000E+00
  0.00000000E+00  0.00000000E+00  0.00000000E+00
  0.00000000E+00  0.00000000E+00  0.00000000E+00
  0.00000000E+00  0.00000000E+00  0.00000000E+00
  0.00000000E+00  0.00000000E+00  0.00000000E+00
  0.00000000E+00  0.00000000E+00  0.00000000E+00
  0.00000000E+00  0.00000000E+00  0.00000000E+00
  0.00000000E+00  0.00000000E+00  0.00000000E+00
  0.00000000E+00  0.00000000E+00  0.00000000E+00
  0.00000000E+00  0.00000000E+00  0.00000000E+00
  0.00000000E+00  0.00000000E+00  0.00000000E+00
  0.00000000E+00  0.00000000E+00  0.00000000E+00
  0.00000000E+00  0.00000000E+00  0.00000000E+00
  0.00000000E+00  0.00000000E+00  0.00000000E+00
  0.00000000E+00  0.00000000E+00  0.00000000E+00
  0.00000000E+00  0.00000000E+00  0.00000000E+00
  0.00000000E+00  0.00000000E+00  0.00000000E+00
