title                                   
    1.000000000000000     
     9.6431607317643024   -0.0434913774628072    0.0148737663531780
    -0.0433757804048543    9.5655097019170157   -0.0495178145878262
     0.0100068999035053   -0.0330117440514380    6.4004600494343808
   Cr   Mo   Zr
     8    18    10
Direct
  0.3282496015267655 -0.0110506404183353 -0.0215277535236804
  0.3277300826847540  0.3351305914485343  0.5045528829653423
  0.0071192178651391  0.3329274132083512  0.0008643301533948
  0.4899482763574314  0.8359135064325408  0.7582543456407145
  0.0157903208594262  0.0038847357441200  0.4929507535055514
  0.1918549033224363  0.8416076798770247  0.7490068490956435
  0.3318355282599505  0.6654028547571214 -0.0104548551046749
  0.3277358339830561 -0.0059275367292573  0.5191895746480755
  0.1695558094038461  0.1609467075304385  0.2603081112032393
  0.3325900312091601  0.6676002535028480  0.5119903312900523
  0.1764167095192019  0.5030932611787076  0.7507185762601187
  0.6657816468611414 -0.0043131332785397 -0.0043942462126219
  0.6667207444745360 -0.0030601444792937  0.5058119170285442
  0.6568468543338948  0.3333153544010068  0.5033906555628557
  0.4946739641390864  0.5016939518498581  0.7514733582555827
  0.4989034045533448  0.1587967719770573  0.7453990963243324
  0.4960364973294997  0.4981486676446960  0.2497029304643380
  0.8249172438808227  0.8416951043691048  0.7526132085883691
  0.1754716178005073  0.5016747346633575  0.2476000906814162
  0.1827124100078992  0.8414576196420024  0.2565172496094695
  0.8288165837265726  0.8440105899520985  0.2514774876460736
  0.6567676655559317  0.3336478398980599 -0.0051175429291344
  0.1749717442089159  0.1563686572712074  0.7386069513783249
  0.8250783303534586  0.4929849918154487  0.7593680777308451
  0.6592813812709328  0.6679171386960997 -0.0092991303154068
  0.8285309397494589  0.1677816708710282  0.2477393088477227
  0.4918078653556671  0.1588815266999420  0.2564724387433223
  0.0080950310000691  0.6721709205550026 -0.0014507897000298
  0.0086638345210319 -0.0013121671592794 -0.0007470662903353
  0.4918268657054705  0.8348297805467132  0.2449743121313378
  0.0070602278799848  0.6794046765316545  0.5066215648882706
  0.6620151196738340  0.6689333571163488  0.5082891778110733
  0.0087364363564712  0.3337722893788668  0.4977102558613173
  0.8275214635277537  0.4914412509596291  0.2379530637899980
  0.3271150237594048  0.3325699952034405 -0.0045949758169930
  0.8328207889831435  0.1676597283423953  0.7480294597875516
 
  0.00000000E+00  0.00000000E+00  0.00000000E+00
  0.00000000E+00  0.00000000E+00  0.00000000E+00
  0.00000000E+00  0.00000000E+00  0.00000000E+00
  0.00000000E+00  0.00000000E+00  0.00000000E+00
  0.00000000E+00  0.00000000E+00  0.00000000E+00
  0.00000000E+00  0.00000000E+00  0.00000000E+00
  0.00000000E+00  0.00000000E+00  0.00000000E+00
  0.00000000E+00  0.00000000E+00  0.00000000E+00
  0.00000000E+00  0.00000000E+00  0.00000000E+00
  0.00000000E+00  0.00000000E+00  0.00000000E+00
  0.00000000E+00  0.00000000E+00  0.00000000E+00
  0.00000000E+00  0.00000000E+00  0.00000000E+00
  0.00000000E+00  0.00000000E+00  0.00000000E+00
  0.00000000E+00  0.00000000E+00  0.00000000E+00
  0.00000000E+00  0.00000000E+00  0.00000000E+00
  0.00000000E+00  0.00000000E+00  0.00000000E+00
  0.00000000E+00  0.00000000E+00  0.00000000E+00
  0.00000000E+00  0.00000000E+00  0.00000000E+00
  0.00000000E+00  0.00000000E+00  0.00000000E+00
  0.00000000E+00  0.00000000E+00  0.00000000E+00
  0.00000000E+00  0.00000000E+00  0.00000000E+00
  0.00000000E+00  0.00000000E+00  0.00000000E+00
  0.00000000E+00  0.00000000E+00  0.00000000E+00
  0.00000000E+00  0.00000000E+00  0.00000000E+00
  0.00000000E+00  0.00000000E+00  0.00000000E+00
  0.00000000E+00  0.00000000E+00  0.00000000E+00
  0.00000000E+00  0.00000000E+00  0.00000000E+00
  0.00000000E+00  0.00000000E+00  0.00000000E+00
  0.00000000E+00  0.00000000E+00  0.00000000E+00
  0.00000000E+00  0.00000000E+00  0.00000000E+00
  0.00000000E+00  0.00000000E+00  0.00000000E+00
  0.00000000E+00  0.00000000E+00  0.00000000E+00
  0.00000000E+00  0.00000000E+00  0.00000000E+00
  0.00000000E+00  0.00000000E+00  0.00000000E+00
  0.00000000E+00  0.00000000E+00  0.00000000E+00
  0.00000000E+00  0.00000000E+00  0.00000000E+00
