title                                   
    1.000000000000000     
     9.3658122651873779   -0.0078787425139753   -0.0086611518459749
    -0.0078260629724652    9.4044074928675681   -0.0052569848249395
    -0.0057834752954569   -0.0035116595456957    6.2413502209651623
   Cr   Hf   V    W 
     4     3    10    19
Direct
  0.6658760200162829  0.3315533269485960  0.4970117550240319
  0.3402327791717100  0.0085499824106338  0.5000699869292581
  0.3384117555944657  0.0089743231930602  0.0007707590632698
 -0.0031356851928202  0.6538222126524365  0.5031992569703454
  0.1708317766455545  0.8371942484007042  0.2499683142726741
  0.8352697464080959  0.8327414590316947  0.2581704048349182
  0.1675170804812623  0.8355267371498291  0.7489369744821416
  0.3396004100825541  0.6580185888278369 -0.0008980367280826
  0.8330132008051362  0.4972289958168544  0.2515198981280318
  0.1715696573777724  0.1679189437736010  0.2475850317761031
  0.6675927157077869  0.3324655544816095  0.0023836077290807
 -0.0008846664656124  0.3325836344879315  0.0013615025364822
  0.8326265775195676  0.8337570707078777  0.7506687865477099
  0.3339813688822837  0.3311119069371192  0.0012514590066983
  0.6617986068954965  0.0047269887447895  0.5053817073129582
  0.3332390115270135  0.3299178620994330  0.4961214608737696
  0.8295054097785498  0.1724995388321613  0.2511313848117883
  0.4978943304186341  0.8369677475473696  0.2506372512355367
  0.3378029164936180  0.6581940312074464  0.4994600207679538
  0.5012935447498849  0.4927529911866007  0.7497989804296452
  0.1666663298525163  0.4966426151019426  0.2471654332754407
  0.1667177476693777  0.4968530446207418  0.7488829111687301
  0.4978348437182415  0.8371558950046142  0.7506634251769398
 -0.0030547225346914  0.6557339010535274 -0.0031601132692656
  0.1715530863906363  0.1684035717075563  0.7503883073904839
 -0.0033734780385669  0.0149250292580826 -0.0000597098874836
 -0.0003457858836898  0.3341849991197380  0.4933004483579461
  0.8330700498083801  0.4965945049057295  0.7463490814979509
  0.6662360053315987  0.6623526877401255  0.5041434471018319
  0.4975248142593574  0.1671933581401672  0.7474183077536938
  0.5022588469925139  0.4928099903556547  0.2490732773058272
 -0.0038535375934003  0.0142661871392674  0.5028081885264647
  0.8280549229864201  0.1722194370208792  0.7484703239208150
  0.4978430641635950  0.1668246751025415  0.2531237898541339
  0.6641357705387991  0.0049014103576541 -0.0015597116649803
  0.6646954854416770  0.6624325489341920 -0.0015379125128407
 
  0.00000000E+00  0.00000000E+00  0.00000000E+00
  0.00000000E+00  0.00000000E+00  0.00000000E+00
  0.00000000E+00  0.00000000E+00  0.00000000E+00
  0.00000000E+00  0.00000000E+00  0.00000000E+00
  0.00000000E+00  0.00000000E+00  0.00000000E+00
  0.00000000E+00  0.00000000E+00  0.00000000E+00
  0.00000000E+00  0.00000000E+00  0.00000000E+00
  0.00000000E+00  0.00000000E+00  0.00000000E+00
  0.00000000E+00  0.00000000E+00  0.00000000E+00
  0.00000000E+00  0.00000000E+00  0.00000000E+00
  0.00000000E+00  0.00000000E+00  0.00000000E+00
  0.00000000E+00  0.00000000E+00  0.00000000E+00
  0.00000000E+00  0.00000000E+00  0.00000000E+00
  0.00000000E+00  0.00000000E+00  0.00000000E+00
  0.00000000E+00  0.00000000E+00  0.00000000E+00
  0.00000000E+00  0.00000000E+00  0.00000000E+00
  0.00000000E+00  0.00000000E+00  0.00000000E+00
  0.00000000E+00  0.00000000E+00  0.00000000E+00
  0.00000000E+00  0.00000000E+00  0.00000000E+00
  0.00000000E+00  0.00000000E+00  0.00000000E+00
  0.00000000E+00  0.00000000E+00  0.00000000E+00
  0.00000000E+00  0.00000000E+00  0.00000000E+00
  0.00000000E+00  0.00000000E+00  0.00000000E+00
  0.00000000E+00  0.00000000E+00  0.00000000E+00
  0.00000000E+00  0.00000000E+00  0.00000000E+00
  0.00000000E+00  0.00000000E+00  0.00000000E+00
  0.00000000E+00  0.00000000E+00  0.00000000E+00
  0.00000000E+00  0.00000000E+00  0.00000000E+00
  0.00000000E+00  0.00000000E+00  0.00000000E+00
  0.00000000E+00  0.00000000E+00  0.00000000E+00
  0.00000000E+00  0.00000000E+00  0.00000000E+00
  0.00000000E+00  0.00000000E+00  0.00000000E+00
  0.00000000E+00  0.00000000E+00  0.00000000E+00
  0.00000000E+00  0.00000000E+00  0.00000000E+00
  0.00000000E+00  0.00000000E+00  0.00000000E+00
  0.00000000E+00  0.00000000E+00  0.00000000E+00
