title                                   
    1.000000000000000     
     9.8124747851382388   -0.0949498566646326   -0.0820124315006413
    -0.0939311267401485    9.8952560084881949    0.0700556110586522
    -0.0537614820824540    0.0465439433027501    6.6800031299004088
   Hf   Nb   Ta   Ti   V 
     8     7     7     7     7
Direct
  0.4970191604302789  0.1491791032428043  0.7794720153246676
  0.6334180984551108  0.3138205764186643  0.4685019379707084
  0.8412519552532014  0.1725467791684617  0.2492090299386078
  0.6543342139604984  0.3491441155636467  0.0085635074468967
  0.8279335049387211  0.4945012515801036  0.7149883932633928
  0.0161165139763354  0.6763129838738625  0.5099777099576183
  0.6648203326411177  0.6578816376052514  0.0057840600168068
  0.3343501476272263  0.0049898056000645  0.4801164722177337
  0.1687426910799467  0.8300780672797935  0.2298930510496102
  0.3387193588123470  0.3413984126680661  0.0073662057390765
  0.5011832814113849  0.8252870669328892  0.2489672720662475
  0.0106614453401461  0.3393285422695418 -0.0108401559839249
  0.8307569639904268  0.8377115596096480  0.2493717023662020
  0.1682647370169433  0.1796407479921109  0.2520728656945009
  0.0000127092211608  0.6663751682766725 -0.0024147971950494
  0.0018183398279598  0.0016652659416796  0.0017348991218272
  0.5014349085775757  0.8354790693371096  0.7552003530892184
  0.8378728552480552  0.1653235085882653  0.7453049333574373
  0.1718898962321443  0.1716488481197078  0.7550563220032855
  0.6647161434111482 -0.0024164346740237  0.4922246887987883
  0.0056738530211904 -0.0003678959183742  0.5054180385876643
  0.8284862404777431  0.8373315890597014  0.7502836429851542
  0.1698897934961061  0.4951870333183640  0.2596573735956276
  0.1783714313976152  0.8539306907747122  0.7818542036132260
  0.3173870771410289  0.6733330530983932  0.5275806903424106
  0.3277293026696682  0.6553978926363542 -0.0249277196972955
  0.4958951269920926  0.5078748604235679  0.7086905821086685
  0.8509200600006259  0.4922357326504924  0.2670146684807404
  0.4763040668757109  0.5183354644292125  0.2831317261309623
  0.6639678036651459  0.6865145873291204  0.4897269158081317
  0.1683877991407408  0.4803497372853957  0.7485580260386362
  0.4996843938916316  0.1412479968793021  0.2045909788864543
  0.6711251623986139 -0.0148526859371488  0.0044358466523729
  0.3186185420608600  0.3352261664031717  0.5087476847298268
  0.3367142720914476 -0.0062054795234071  0.0277998635932756
  0.0255278172280498  0.3345651816968251  0.5168870119004910
 
  0.00000000E+00  0.00000000E+00  0.00000000E+00
  0.00000000E+00  0.00000000E+00  0.00000000E+00
  0.00000000E+00  0.00000000E+00  0.00000000E+00
  0.00000000E+00  0.00000000E+00  0.00000000E+00
  0.00000000E+00  0.00000000E+00  0.00000000E+00
  0.00000000E+00  0.00000000E+00  0.00000000E+00
  0.00000000E+00  0.00000000E+00  0.00000000E+00
  0.00000000E+00  0.00000000E+00  0.00000000E+00
  0.00000000E+00  0.00000000E+00  0.00000000E+00
  0.00000000E+00  0.00000000E+00  0.00000000E+00
  0.00000000E+00  0.00000000E+00  0.00000000E+00
  0.00000000E+00  0.00000000E+00  0.00000000E+00
  0.00000000E+00  0.00000000E+00  0.00000000E+00
  0.00000000E+00  0.00000000E+00  0.00000000E+00
  0.00000000E+00  0.00000000E+00  0.00000000E+00
  0.00000000E+00  0.00000000E+00  0.00000000E+00
  0.00000000E+00  0.00000000E+00  0.00000000E+00
  0.00000000E+00  0.00000000E+00  0.00000000E+00
  0.00000000E+00  0.00000000E+00  0.00000000E+00
  0.00000000E+00  0.00000000E+00  0.00000000E+00
  0.00000000E+00  0.00000000E+00  0.00000000E+00
  0.00000000E+00  0.00000000E+00  0.00000000E+00
  0.00000000E+00  0.00000000E+00  0.00000000E+00
  0.00000000E+00  0.00000000E+00  0.00000000E+00
  0.00000000E+00  0.00000000E+00  0.00000000E+00
  0.00000000E+00  0.00000000E+00  0.00000000E+00
  0.00000000E+00  0.00000000E+00  0.00000000E+00
  0.00000000E+00  0.00000000E+00  0.00000000E+00
  0.00000000E+00  0.00000000E+00  0.00000000E+00
  0.00000000E+00  0.00000000E+00  0.00000000E+00
  0.00000000E+00  0.00000000E+00  0.00000000E+00
  0.00000000E+00  0.00000000E+00  0.00000000E+00
  0.00000000E+00  0.00000000E+00  0.00000000E+00
  0.00000000E+00  0.00000000E+00  0.00000000E+00
  0.00000000E+00  0.00000000E+00  0.00000000E+00
  0.00000000E+00  0.00000000E+00  0.00000000E+00
