title                                   
    1.000000000000000     
     9.9932110377671819   -0.0129457405775720   -0.0043076159220499
    -0.0129110921762683   10.0087360075886362   -0.0401680418503599
    -0.0028631052733446   -0.0267320562446942    6.6686035640116312
   Hf   Ta   W    Zr
     7    14    11     4
Direct
  0.8369226255642015  0.8413840128189131  0.7449310168240915
  0.6657854542299190  0.3341790475242672  0.4952642375856491
  0.8317032397884248  0.1568908212225081  0.7572363429526493
  0.0002023630025476  0.3349625025663856  0.5052815817817061
  0.6657895201122889  0.6618416707996905  0.0020850903954381
  0.1577418051765439  0.1561507363525384  0.2539628370909469
  0.1801625108386541  0.5053358060142124  0.7553993417769752
  0.3377575631541601  0.3316759135262985  0.4928338164347591
  0.3314651061632714  0.0025321561332984  0.5065725629520536
  0.4944743172761371  0.8290579391562933  0.2552117903400295
  0.3309940618183777  0.6664442593811820  0.4922162572549779
  0.0041650311465472  0.6693490511166802 -0.0038526768407997
  0.3363056000977564  0.3308595329166147  0.0087605821917882
  0.6626722975149898  0.6558372350263154  0.4925862894865164
  0.4911594671746749  0.4990159430336515  0.7540383065640478
  0.5058760713636304  0.1739233792749149  0.7560356587813267
  0.6607499787619479  0.0116493708416009  0.4792656923595182
  0.6609718440552672  0.0070436500623567  0.0227015390459692
  0.8413440395949476  0.8372946310983644  0.2536604902833657
  0.0063033040564441  0.6661863445972677  0.5004796306504390
  0.1606205526157267  0.8362127244651748  0.2517760555326682
  0.0024561708164707 -0.0014895310416451  0.5010678534619272
  0.8353648411031042  0.1588549919930804  0.2455128945486409
  0.4985022134252321  0.1708839883156409  0.2496581808084414
  0.1619911997576879  0.8300288561694850  0.7473846084147288
  0.1640563123525197  0.1589468983169513  0.7450046272670174
  0.1751004286909012  0.5089224175939150  0.2467439974380100
  0.0030699843766556 -0.0043018387923514 -0.0005625841788962
  0.6593248309592824  0.3340707061098354  0.0054033549803540
  0.3336756816687232  0.6653553260949892  0.0102442993458971
  0.4972680860711252  0.4985283113843095  0.2455499643025986
  0.8342324691821609  0.5063590309795489  0.7514448003704409
  0.5003746759418327  0.8309572033971462  0.7452689135511009
  0.3328962258166072  0.0012119329161852 -0.0058898122574606
  0.8356798676290975  0.5000242812810229  0.2406845755293542
  0.0028402587021408  0.3338206973533594 -0.0039621170262713
 
  0.00000000E+00  0.00000000E+00  0.00000000E+00
  0.00000000E+00  0.00000000E+00  0.00000000E+00
  0.00000000E+00  0.00000000E+00  0.00000000E+00
  0.00000000E+00  0.00000000E+00  0.00000000E+00
  0.00000000E+00  0.00000000E+00  0.00000000E+00
  0.00000000E+00  0.00000000E+00  0.00000000E+00
  0.00000000E+00  0.00000000E+00  0.00000000E+00
  0.00000000E+00  0.00000000E+00  0.00000000E+00
  0.00000000E+00  0.00000000E+00  0.00000000E+00
  0.00000000E+00  0.00000000E+00  0.00000000E+00
  0.00000000E+00  0.00000000E+00  0.00000000E+00
  0.00000000E+00  0.00000000E+00  0.00000000E+00
  0.00000000E+00  0.00000000E+00  0.00000000E+00
  0.00000000E+00  0.00000000E+00  0.00000000E+00
  0.00000000E+00  0.00000000E+00  0.00000000E+00
  0.00000000E+00  0.00000000E+00  0.00000000E+00
  0.00000000E+00  0.00000000E+00  0.00000000E+00
  0.00000000E+00  0.00000000E+00  0.00000000E+00
  0.00000000E+00  0.00000000E+00  0.00000000E+00
  0.00000000E+00  0.00000000E+00  0.00000000E+00
  0.00000000E+00  0.00000000E+00  0.00000000E+00
  0.00000000E+00  0.00000000E+00  0.00000000E+00
  0.00000000E+00  0.00000000E+00  0.00000000E+00
  0.00000000E+00  0.00000000E+00  0.00000000E+00
  0.00000000E+00  0.00000000E+00  0.00000000E+00
  0.00000000E+00  0.00000000E+00  0.00000000E+00
  0.00000000E+00  0.00000000E+00  0.00000000E+00
  0.00000000E+00  0.00000000E+00  0.00000000E+00
  0.00000000E+00  0.00000000E+00  0.00000000E+00
  0.00000000E+00  0.00000000E+00  0.00000000E+00
  0.00000000E+00  0.00000000E+00  0.00000000E+00
  0.00000000E+00  0.00000000E+00  0.00000000E+00
  0.00000000E+00  0.00000000E+00  0.00000000E+00
  0.00000000E+00  0.00000000E+00  0.00000000E+00
  0.00000000E+00  0.00000000E+00  0.00000000E+00
  0.00000000E+00  0.00000000E+00  0.00000000E+00
