title                                   
    1.000000000000000     
     9.5256395995617833   -0.0333533428015714    0.0023871179622164
    -0.0334271589868892    9.5322120318408476    0.0196784503779100
     0.0015819440110557    0.0131106739082674    6.3575906379579754
   Cr   Nb   Ta   W 
     9     9     9     9
Direct
 -0.0063272676362502  0.6668474158356090 -0.0041073098810028
  0.8399472585850855  0.8296643963124236  0.2529889410334624
  0.4934185988476816  0.1693147720183973  0.7458609313911178
  0.3339641064256108  0.3226019674578099  0.4951830744345385
 -0.0046007018805940  0.6695725225986712  0.5071297873291630
  0.1717813222191398  0.1670879322183974  0.2555305931140259
  0.0021016579354428  0.3329102881215480  0.4965795071148502
  0.8404294026169629  0.5048439012966197  0.7560436610792701
  0.3350835184807989  0.0041085589592428  0.4956897669858340
  0.6740191386004379  0.6721944211383458  0.5046537143069959
  0.3308416103379315  0.6683174002361022 -0.0019926959225199
  0.1623647119235771  0.4962297887154959  0.2577602938598275
  0.6671494721549722  0.3306355811451920  0.5066296314620662
 -0.0004115201462445 -0.0017153569556104  0.0037771464023714
  0.3315429218099007  0.6702066578608452  0.5010382733875669
  0.6737368282171650  0.6694310023000192  0.0008765131270030
  0.6648474326599337  0.0005863073994631  0.0009823033660013
  0.3333791625117822  0.0040216248206060 -0.0024695294920594
  0.6647968865367871 -0.0004608936468927  0.4989751136882752
  0.4988533326956611  0.4939612275034927  0.2519357206161728
  0.8426387669783005  0.5048471118160189  0.2585960153154745
  0.1716283780294571  0.1690389391726839  0.7285838862352599
  0.1595497249054197  0.8307689810751333  0.2533939009132245
  0.1595683810058938  0.4979712470790386  0.7410813657189390
  0.0013310280347674  0.3334327500126218  0.0025264652501136
  0.4963464496307475  0.4934266575896963  0.7504048942088328
  0.8384592309207508  0.1702262632548583  0.7459448379120850
  0.8404751096162993  0.8293494125632854  0.7506342510494144
  0.3321609216571929  0.3252573059284922  0.0002424224718430
  0.1612593256645189  0.8321458094533464  0.7437725229749679
  0.4967192480570916  0.8372439996211698  0.7483614090872278
 -0.0005779171349343 -0.0022310576684001  0.4928154126993021
  0.4927714758414578  0.1680809866201478  0.2564743132224964
  0.4960817317857212  0.8374106405540678  0.2514493568318319
  0.8361616707582057  0.1701751231539622  0.2528970473917109
  0.6685086013533267  0.3324963144380998 -0.0002435386856839
 
  0.00000000E+00  0.00000000E+00  0.00000000E+00
  0.00000000E+00  0.00000000E+00  0.00000000E+00
  0.00000000E+00  0.00000000E+00  0.00000000E+00
  0.00000000E+00  0.00000000E+00  0.00000000E+00
  0.00000000E+00  0.00000000E+00  0.00000000E+00
  0.00000000E+00  0.00000000E+00  0.00000000E+00
  0.00000000E+00  0.00000000E+00  0.00000000E+00
  0.00000000E+00  0.00000000E+00  0.00000000E+00
  0.00000000E+00  0.00000000E+00  0.00000000E+00
  0.00000000E+00  0.00000000E+00  0.00000000E+00
  0.00000000E+00  0.00000000E+00  0.00000000E+00
  0.00000000E+00  0.00000000E+00  0.00000000E+00
  0.00000000E+00  0.00000000E+00  0.00000000E+00
  0.00000000E+00  0.00000000E+00  0.00000000E+00
  0.00000000E+00  0.00000000E+00  0.00000000E+00
  0.00000000E+00  0.00000000E+00  0.00000000E+00
  0.00000000E+00  0.00000000E+00  0.00000000E+00
  0.00000000E+00  0.00000000E+00  0.00000000E+00
  0.00000000E+00  0.00000000E+00  0.00000000E+00
  0.00000000E+00  0.00000000E+00  0.00000000E+00
  0.00000000E+00  0.00000000E+00  0.00000000E+00
  0.00000000E+00  0.00000000E+00  0.00000000E+00
  0.00000000E+00  0.00000000E+00  0.00000000E+00
  0.00000000E+00  0.00000000E+00  0.00000000E+00
  0.00000000E+00  0.00000000E+00  0.00000000E+00
  0.00000000E+00  0.00000000E+00  0.00000000E+00
  0.00000000E+00  0.00000000E+00  0.00000000E+00
  0.00000000E+00  0.00000000E+00  0.00000000E+00
  0.00000000E+00  0.00000000E+00  0.00000000E+00
  0.00000000E+00  0.00000000E+00  0.00000000E+00
  0.00000000E+00  0.00000000E+00  0.00000000E+00
  0.00000000E+00  0.00000000E+00  0.00000000E+00
  0.00000000E+00  0.00000000E+00  0.00000000E+00
  0.00000000E+00  0.00000000E+00  0.00000000E+00
  0.00000000E+00  0.00000000E+00  0.00000000E+00
  0.00000000E+00  0.00000000E+00  0.00000000E+00
