title                                   
    1.000000000000000     
     9.7695792784404194    0.0339276008967053   -0.0520629235549619
     0.0337290923824650    9.7558143527640855   -0.0011529405442097
    -0.0345919138135837   -0.0009951668931181    6.5571908496658811
   Hf   Mo   Nb   Ta   V 
     7     7     7     7     8
Direct
  0.5000237304578227  0.8317432240731962  0.2447422717369093
  0.0066594941731615 -0.0092313116545511 -0.0071222145890902
 -0.0062834576268671  0.3433599721086196  0.5236759733657406
  0.8251513382433242  0.8274737574300257  0.2590751722485803
  0.1772721435966688  0.1644148091098245  0.2558434256277693
  0.4986487716274298  0.1652396003049002  0.2499290617271780
  0.8233722313966340  0.1705649113137796  0.2551675283439788
  0.0043594860067569  0.6662077415625267  0.4987019497007895
  0.1698150786434234  0.8328401730413610  0.2552108783023759
  0.6609731119800656  0.0005030382129446  0.5085825927622432
  0.0084614241997998 -0.0036776502454821  0.5057105542296459
  0.3372877672682981  0.3378870530884245  0.0014836708573159
  0.3333629086743395  0.6684145785047001 -0.0016949423773463
  0.6668210378881577  0.3432992518284621 -0.0109530010095835
  0.8225021336461025  0.1668690793351225  0.7429148135030342
  0.5046615163503785  0.4989508177480581  0.2422577644482422
  0.4967143053207887  0.8283052221614740  0.7480194959884232
  0.3363905171375275  0.6701887546556475  0.5024039875980085
  0.1766370068926472  0.1618523929493308  0.7532422378974430
  0.3446289125051796  0.3414436630643673  0.5128947881258897
  0.4981792223367609  0.1693500009246929  0.7508994027972562
  0.6650990091661643 -0.0010624678493771 -0.0216436271551531
  0.1724732844208330  0.5036145700535706  0.2487104356218087
  0.1792870236480687  0.5098539702584304  0.7601135817077376
  0.8322315128241907  0.8275072781790774  0.7273014743257109
 -0.0023090356476484  0.3437318486194496 -0.0113488847018758
  0.0027695087340913  0.6716516741010640 -0.0055865547372800
  0.8266887872761014  0.5086148988039347  0.2471605561589590
  0.6633092798307060  0.6428407497306911  0.5256946907228561
  0.3239437686433660 -0.0169431148543235  0.5218970472887260
  0.8201211982898287  0.5094946849674508  0.7558999542004582
  0.3178910989143608 -0.0130690821154994 -0.0204037680986911
  0.1685122266736306  0.8323407619608556  0.7393059104313577
  0.5075251981554242  0.4958952990094112  0.7628254342716798
  0.6677014775309876  0.3532279365739192  0.5128319133236798
  0.6691169808214950  0.6563019130439204 -0.0337435746447785
 
  0.00000000E+00  0.00000000E+00  0.00000000E+00
  0.00000000E+00  0.00000000E+00  0.00000000E+00
  0.00000000E+00  0.00000000E+00  0.00000000E+00
  0.00000000E+00  0.00000000E+00  0.00000000E+00
  0.00000000E+00  0.00000000E+00  0.00000000E+00
  0.00000000E+00  0.00000000E+00  0.00000000E+00
  0.00000000E+00  0.00000000E+00  0.00000000E+00
  0.00000000E+00  0.00000000E+00  0.00000000E+00
  0.00000000E+00  0.00000000E+00  0.00000000E+00
  0.00000000E+00  0.00000000E+00  0.00000000E+00
  0.00000000E+00  0.00000000E+00  0.00000000E+00
  0.00000000E+00  0.00000000E+00  0.00000000E+00
  0.00000000E+00  0.00000000E+00  0.00000000E+00
  0.00000000E+00  0.00000000E+00  0.00000000E+00
  0.00000000E+00  0.00000000E+00  0.00000000E+00
  0.00000000E+00  0.00000000E+00  0.00000000E+00
  0.00000000E+00  0.00000000E+00  0.00000000E+00
  0.00000000E+00  0.00000000E+00  0.00000000E+00
  0.00000000E+00  0.00000000E+00  0.00000000E+00
  0.00000000E+00  0.00000000E+00  0.00000000E+00
  0.00000000E+00  0.00000000E+00  0.00000000E+00
  0.00000000E+00  0.00000000E+00  0.00000000E+00
  0.00000000E+00  0.00000000E+00  0.00000000E+00
  0.00000000E+00  0.00000000E+00  0.00000000E+00
  0.00000000E+00  0.00000000E+00  0.00000000E+00
  0.00000000E+00  0.00000000E+00  0.00000000E+00
  0.00000000E+00  0.00000000E+00  0.00000000E+00
  0.00000000E+00  0.00000000E+00  0.00000000E+00
  0.00000000E+00  0.00000000E+00  0.00000000E+00
  0.00000000E+00  0.00000000E+00  0.00000000E+00
  0.00000000E+00  0.00000000E+00  0.00000000E+00
  0.00000000E+00  0.00000000E+00  0.00000000E+00
  0.00000000E+00  0.00000000E+00  0.00000000E+00
  0.00000000E+00  0.00000000E+00  0.00000000E+00
  0.00000000E+00  0.00000000E+00  0.00000000E+00
  0.00000000E+00  0.00000000E+00  0.00000000E+00
