title                                   
    1.000000000000000     
    10.1467270498960254   -0.0277876034356359   -0.0465939792908410
    -0.0277706044111048   10.1368120408408000   -0.0241793199461011
    -0.0312815802568239   -0.0162667497524391    6.8192784116444196
   Hf   Nb   Ta
    12    12    12
Direct
  0.5089423272889236  0.1594222291351324  0.2424209548621234
  0.1683936949495765  0.8304285627783192  0.7498438200009829
  0.3486691291694458  0.6684987175524931  0.4795141986900234
 -0.0137447833376885  0.6699648264531363  0.0069801626478003
  0.3161848170963881  0.3328226237818295  0.0289822663318989
  0.1694894065288311  0.1646804819799043  0.7337077660608829
  0.4902381888642031  0.4903474420812958  0.7626373997881638
  0.6717487662403864  0.6744895841333053 -0.0027816524437083
 -0.0119071009528978  0.0005081854899397  0.0027553250037296
  0.1646770587539693  0.5013441303303989  0.7411435012848839
  0.1718255843990172  0.8406142499903261  0.2506739303253503
  0.6740834033292435  0.3336370500617191  0.5108091796938145
  0.8287099049523035  0.8379819817429489  0.2706357584040488
 -0.0097309645337270  0.6614292072576508  0.4910023798541065
  0.6763626357703851  0.3326642137556590 -0.0091649639656641
  0.0011627983744355  0.3321301116585318  0.0061830289468623
  0.3433148497260086  0.0004267710250513 -0.0076951492663423
  0.8404515470131616  0.5004287522479554  0.7474909707233093
  0.3317928201347303  0.3330422653165716  0.4785844096620708
  0.8351503971232347  0.1658019017409161  0.7505004096642118
  0.5025714958485645  0.8403667489530146  0.7513526417093886
 -0.0093489710149907  0.0049097896869227  0.4953054877635784
  0.6669119074300939  0.0024145424025669  0.5060860441841168
  0.6639331778514481  0.6660485893148411  0.4960073649368897
  0.8334716585805274  0.4943273021194800  0.2505918513792220
  0.8315377323615419  0.8345492317153920  0.7231259462203466
  0.5032565179032955  0.8453039392846906  0.2450413990621030
  0.5110847391607679  0.4975766701498359  0.2367458791157780
  0.3424549421521110  0.6646087604210583  0.0234182370419788
  0.3466082608168486 -0.0056776307643646  0.5076004493718930
  0.1537754338896552  0.5011603898201723  0.2670006021339494
  0.4975382174118484  0.1641015749261303  0.7548773228956568
  0.6729689559647056 -0.0044317310846379 -0.0111432599221317
  0.8288159007844128  0.1705259886640910  0.2466629231295070
 -0.0120993129899267  0.3320851305093846  0.4985917655274609
  0.1607048629591662  0.1614674153683381  0.2745116491817153
 
  0.00000000E+00  0.00000000E+00  0.00000000E+00
  0.00000000E+00  0.00000000E+00  0.00000000E+00
  0.00000000E+00  0.00000000E+00  0.00000000E+00
  0.00000000E+00  0.00000000E+00  0.00000000E+00
  0.00000000E+00  0.00000000E+00  0.00000000E+00
  0.00000000E+00  0.00000000E+00  0.00000000E+00
  0.00000000E+00  0.00000000E+00  0.00000000E+00
  0.00000000E+00  0.00000000E+00  0.00000000E+00
  0.00000000E+00  0.00000000E+00  0.00000000E+00
  0.00000000E+00  0.00000000E+00  0.00000000E+00
  0.00000000E+00  0.00000000E+00  0.00000000E+00
  0.00000000E+00  0.00000000E+00  0.00000000E+00
  0.00000000E+00  0.00000000E+00  0.00000000E+00
  0.00000000E+00  0.00000000E+00  0.00000000E+00
  0.00000000E+00  0.00000000E+00  0.00000000E+00
  0.00000000E+00  0.00000000E+00  0.00000000E+00
  0.00000000E+00  0.00000000E+00  0.00000000E+00
  0.00000000E+00  0.00000000E+00  0.00000000E+00
  0.00000000E+00  0.00000000E+00  0.00000000E+00
  0.00000000E+00  0.00000000E+00  0.00000000E+00
  0.00000000E+00  0.00000000E+00  0.00000000E+00
  0.00000000E+00  0.00000000E+00  0.00000000E+00
  0.00000000E+00  0.00000000E+00  0.00000000E+00
  0.00000000E+00  0.00000000E+00  0.00000000E+00
  0.00000000E+00  0.00000000E+00  0.00000000E+00
  0.00000000E+00  0.00000000E+00  0.00000000E+00
  0.00000000E+00  0.00000000E+00  0.00000000E+00
  0.00000000E+00  0.00000000E+00  0.00000000E+00
  0.00000000E+00  0.00000000E+00  0.00000000E+00
  0.00000000E+00  0.00000000E+00  0.00000000E+00
  0.00000000E+00  0.00000000E+00  0.00000000E+00
  0.00000000E+00  0.00000000E+00  0.00000000E+00
  0.00000000E+00  0.00000000E+00  0.00000000E+00
  0.00000000E+00  0.00000000E+00  0.00000000E+00
  0.00000000E+00  0.00000000E+00  0.00000000E+00
  0.00000000E+00  0.00000000E+00  0.00000000E+00
