title                                   
    1.000000000000000     
     9.4643702462249344    0.0538797037700260    0.0332898680792932
     0.0539307406846166    9.4488512535419265    0.0338023380100525
     0.0222435880917495    0.0225431930400259    6.2894596751902849
   Cr   Mo   Ta   Ti   W 
     7     8     7     7     7
Direct
  0.5025549164492618  0.1581882156839823  0.7519857224891746
 -0.0085765038847536  0.3362890511997363  0.0010339920312532
  0.4950372982091523  0.8403298116005963  0.7508434865407021
  0.6677413517068580  0.3344811534500248  0.5008415701954658
  0.6601145094535115  0.0054578343400488 -0.0010556571396514
  0.8362135347753212  0.4975746927181746  0.7510195867042602
  0.3401447358249551 -0.0003017495200114 -0.0048167308201460
  0.8294203421780543  0.8347432731289152  0.2516145868286702
  0.6606545723998449  0.0014614088699608  0.5046374456427094
  0.6676379818267932  0.6653822110435239 -0.0082991560175273
  0.8352295542164404  0.4981768312797629  0.2463324723041126
  0.1707244335953126  0.8335559611975047  0.2511046607925380
 -0.0033577167509027  0.6636637185800753  0.5009377137264913
  0.5021924658965478  0.1621356347891153  0.2491790808399713
 -0.0013189439157126  0.6637066140285998  0.0013187769132404
  0.8299606889294407  0.8314222474824275  0.7554256597445704
  0.6655598108062243  0.3340413586028302 -0.0058602374484698
  0.8269552319276736  0.1650819203346262  0.7532033554541174
 -0.0047555137995199  0.3374162056700842  0.5038933224601508
  0.5009150091436112  0.8391347304687163  0.2386388668494145
  0.1662589587423675  0.1607244361213972  0.7594077474499906
  0.3409904455628996  0.3295043899467391 -0.0090297208235417
  0.1650527550999866  0.5020223079778390  0.2438319777179836
  0.1655993248738510  0.1651635142665302  0.2469356220655991
  0.6708398098730813  0.6648470499347896  0.4998086973937377
 -0.0058354625834607 -0.0055312957989624  0.0177039835242501
  0.5023173613660521  0.5060219338669877  0.2472367260144626
  0.1695548679105221  0.8329471930464347  0.7548016379146713
  0.3433310408112764  0.3295111136177912  0.5047015467046843
  0.8294517176506955  0.1680914939332116  0.2534810011872226
 -0.0020552326424903 -0.0013583308748708  0.4977712663208436
  0.5052925802884157  0.5015374188169301  0.7409442613386117
  0.3387091545456354  0.0019813881168812  0.5070042666619488
  0.3354950336265076  0.6695071981260352 -0.0088092814794226
  0.1648540221721339  0.5033803924516277  0.7512494136945896
  0.3370958637144121  0.6697086715019435  0.5009823362233216
 
  0.00000000E+00  0.00000000E+00  0.00000000E+00
  0.00000000E+00  0.00000000E+00  0.00000000E+00
  0.00000000E+00  0.00000000E+00  0.00000000E+00
  0.00000000E+00  0.00000000E+00  0.00000000E+00
  0.00000000E+00  0.00000000E+00  0.00000000E+00
  0.00000000E+00  0.00000000E+00  0.00000000E+00
  0.00000000E+00  0.00000000E+00  0.00000000E+00
  0.00000000E+00  0.00000000E+00  0.00000000E+00
  0.00000000E+00  0.00000000E+00  0.00000000E+00
  0.00000000E+00  0.00000000E+00  0.00000000E+00
  0.00000000E+00  0.00000000E+00  0.00000000E+00
  0.00000000E+00  0.00000000E+00  0.00000000E+00
  0.00000000E+00  0.00000000E+00  0.00000000E+00
  0.00000000E+00  0.00000000E+00  0.00000000E+00
  0.00000000E+00  0.00000000E+00  0.00000000E+00
  0.00000000E+00  0.00000000E+00  0.00000000E+00
  0.00000000E+00  0.00000000E+00  0.00000000E+00
  0.00000000E+00  0.00000000E+00  0.00000000E+00
  0.00000000E+00  0.00000000E+00  0.00000000E+00
  0.00000000E+00  0.00000000E+00  0.00000000E+00
  0.00000000E+00  0.00000000E+00  0.00000000E+00
  0.00000000E+00  0.00000000E+00  0.00000000E+00
  0.00000000E+00  0.00000000E+00  0.00000000E+00
  0.00000000E+00  0.00000000E+00  0.00000000E+00
  0.00000000E+00  0.00000000E+00  0.00000000E+00
  0.00000000E+00  0.00000000E+00  0.00000000E+00
  0.00000000E+00  0.00000000E+00  0.00000000E+00
  0.00000000E+00  0.00000000E+00  0.00000000E+00
  0.00000000E+00  0.00000000E+00  0.00000000E+00
  0.00000000E+00  0.00000000E+00  0.00000000E+00
  0.00000000E+00  0.00000000E+00  0.00000000E+00
  0.00000000E+00  0.00000000E+00  0.00000000E+00
  0.00000000E+00  0.00000000E+00  0.00000000E+00
  0.00000000E+00  0.00000000E+00  0.00000000E+00
  0.00000000E+00  0.00000000E+00  0.00000000E+00
  0.00000000E+00  0.00000000E+00  0.00000000E+00
