title                                   
    1.000000000000000     
    10.1448223951368615   -0.0889315054200404    0.0139189531340297
    -0.0886127624776754   10.0617400430353001    0.0024444956402792
     0.0090607813667687    0.0014565735941754    6.8012219298604730
   Hf   Ta   V    Zr
     9     9     9     9
Direct
  0.1646081670806482  0.4992838122508631  0.2578474925242697
  0.8179787181560104  0.1574883736805383  0.7538537960084006
  0.5026167710301289  0.4879693512533307  0.2590791570623058
  0.3322811821108513  0.0072816591430718  0.4767163517097200
  0.4976620804881760  0.4974335314819405  0.7380324744297643
  0.5199531546156150  0.8580364042075289  0.7325877832671807
  0.5383597825484028  0.1739602891294711  0.2454652208990805
  0.3521295938343095  0.6896448793096828  0.0327376945490032
  0.6737951975041053  0.6676687610014395 -0.0059367919912045
  0.8235567867374541  0.8470468494734585  0.7551938097103564
 -0.0120625439815501  0.6621962316680564  0.0037062814149326
  0.8329134268513707  0.1664416409011337  0.2517123375810071
  0.6715814735581771  0.6748058508767175  0.5038641962252484
  0.1393994973294370  0.1997137144401992  0.2680496265860675
  0.8292244995972952  0.8358886006753994  0.2497993676187953
 -0.0209618069085877  0.3521493409834102 -0.0059074351303402
  0.3509242674063534  0.6910843415431644  0.4637646571440856
  0.3427925784461119  0.3091597587796562  0.5021364359699876
  0.6599106154537949  0.3236894196995509  0.5411348427872066
  0.8142462777192203  0.4749600289100142  0.7402270092443350
  0.6642863906832653  0.3354202192160879 -0.0428474286347216
 -0.0239074034041442  0.3389118467832515  0.5089275180238793
  0.5132863550094081  0.1773177474914876  0.7398344129786286
  0.6782566472436415 -0.0068025377046481  0.4685053693828231
  0.6793731688627905 -0.0168125197374915  0.0309716709966481
  0.1579109210901424  0.8061728899290007  0.2484384674860542
  0.5295057101615568  0.8545506107590226  0.2669126388502546
  0.0099359853667449 -0.0081983571186639  0.0172304299024777
  0.3345997036678521  0.3104590275790819 -0.0009206062948826
  0.3411338302639178  0.0074535715942108  0.0006535878692737
  0.8067322932134099  0.4757084853237926  0.2670300427934670
  0.0062539788001835 -0.0081317424426582  0.4875049482814403
  0.1795131227414387  0.8143443591685039  0.7492472286181504
 -0.0217449039071308  0.6613228564633274  0.5110920861668996
  0.1677928062509619  0.4999066757329324  0.7441376561425479
  0.1461616743786369  0.1824740275541333  0.7392176698268562
 
  0.00000000E+00  0.00000000E+00  0.00000000E+00
  0.00000000E+00  0.00000000E+00  0.00000000E+00
  0.00000000E+00  0.00000000E+00  0.00000000E+00
  0.00000000E+00  0.00000000E+00  0.00000000E+00
  0.00000000E+00  0.00000000E+00  0.00000000E+00
  0.00000000E+00  0.00000000E+00  0.00000000E+00
  0.00000000E+00  0.00000000E+00  0.00000000E+00
  0.00000000E+00  0.00000000E+00  0.00000000E+00
  0.00000000E+00  0.00000000E+00  0.00000000E+00
  0.00000000E+00  0.00000000E+00  0.00000000E+00
  0.00000000E+00  0.00000000E+00  0.00000000E+00
  0.00000000E+00  0.00000000E+00  0.00000000E+00
  0.00000000E+00  0.00000000E+00  0.00000000E+00
  0.00000000E+00  0.00000000E+00  0.00000000E+00
  0.00000000E+00  0.00000000E+00  0.00000000E+00
  0.00000000E+00  0.00000000E+00  0.00000000E+00
  0.00000000E+00  0.00000000E+00  0.00000000E+00
  0.00000000E+00  0.00000000E+00  0.00000000E+00
  0.00000000E+00  0.00000000E+00  0.00000000E+00
  0.00000000E+00  0.00000000E+00  0.00000000E+00
  0.00000000E+00  0.00000000E+00  0.00000000E+00
  0.00000000E+00  0.00000000E+00  0.00000000E+00
  0.00000000E+00  0.00000000E+00  0.00000000E+00
  0.00000000E+00  0.00000000E+00  0.00000000E+00
  0.00000000E+00  0.00000000E+00  0.00000000E+00
  0.00000000E+00  0.00000000E+00  0.00000000E+00
  0.00000000E+00  0.00000000E+00  0.00000000E+00
  0.00000000E+00  0.00000000E+00  0.00000000E+00
  0.00000000E+00  0.00000000E+00  0.00000000E+00
  0.00000000E+00  0.00000000E+00  0.00000000E+00
  0.00000000E+00  0.00000000E+00  0.00000000E+00
  0.00000000E+00  0.00000000E+00  0.00000000E+00
  0.00000000E+00  0.00000000E+00  0.00000000E+00
  0.00000000E+00  0.00000000E+00  0.00000000E+00
  0.00000000E+00  0.00000000E+00  0.00000000E+00
  0.00000000E+00  0.00000000E+00  0.00000000E+00
