title                                   
    1.000000000000000     
     9.4527709626228695   -0.0155863874426215    0.0018821792016639
    -0.0155886737776688    9.4419634031793827    0.0047879056126900
     0.0012505918262128    0.0031853160314536    6.3015385924897096
   Cr   Mo   Ti   V    W 
     2    15     6     1    12
Direct
  0.6671024011020175  0.3324271383051631  0.4990774182224313
 -0.0021528236125551 -0.0013686949011836  0.4978771067957810
  0.8367894146288136  0.8350529100097710  0.7482160784003887
  0.1648244317261267  0.8350650305982344  0.7491584677707789
  0.3332070022957112  0.6638019238235371  0.0015580238284468
 -0.0015247810909955  0.0003648132133429 -0.0001077850323127
  0.6651206099658763  0.3323213412927568  0.0006939651151351
  0.3319807680894281  0.6667633786608740  0.4985413097485246
  0.5031440703463047  0.1691239628440715  0.2524934180826944
  0.0011932199755888  0.6678750338816009  0.4993640071362729
  0.8336058935867064  0.1671200064019242  0.2535824278244186
  0.5012798630224554  0.4981055451663747  0.2527181118770195
  0.1638590144187449  0.1659764304100785  0.2516976144491012
  0.3353235006969784  0.3333174128907764  0.4978244707808777
  0.0012446077586915  0.6674756486448340  0.0016443444760882
  0.5017222446792333  0.1689414406432450  0.7474971103185327
  0.1637287353179971  0.8328114633566934  0.2514848553311180
  0.3323221831865833 -0.0011265120095230  0.4985675630383177
  0.3333471920069324  0.3329794211692489  0.0043054154559742
  0.6670126399501166  0.0000486173270895 -0.0002247812217626
  0.6666092097907674  0.6692785484072807 -0.0000686399228199
  0.8317998706239944  0.4971658968332169  0.7465537620381508
  0.1619824296782437  0.1638524252191184  0.7471530598541181
  0.1659630680588512  0.5020783553187578  0.2514974330993211
 -0.0003173527514471  0.3327994643913090  0.4966848694826903
  0.6657681026313685  0.6660474785350152  0.4992050802556382
  0.0020824786895325  0.3340179944030843  0.0029261583052809
  0.8376618685310898  0.8358614871994697  0.2536326827967421
  0.5025319063561521  0.4977623313122918  0.7472461318544682
  0.8357200913885553  0.1695589852540612  0.7456214331887155
  0.1655730999375279  0.4988030719616223  0.7499950945207883
  0.6657163167520898  0.0020713741626446  0.5000457003937988
  0.4976981544966032  0.8315468208214311  0.7495244781390048
  0.8344277247481592  0.4984443334162459  0.2532111237792932
  0.4985086028389015  0.8323146539300776  0.2507518522557304
  0.3351442401788562  0.0013204671054634  0.0000506375612523
 
  0.00000000E+00  0.00000000E+00  0.00000000E+00
  0.00000000E+00  0.00000000E+00  0.00000000E+00
  0.00000000E+00  0.00000000E+00  0.00000000E+00
  0.00000000E+00  0.00000000E+00  0.00000000E+00
  0.00000000E+00  0.00000000E+00  0.00000000E+00
  0.00000000E+00  0.00000000E+00  0.00000000E+00
  0.00000000E+00  0.00000000E+00  0.00000000E+00
  0.00000000E+00  0.00000000E+00  0.00000000E+00
  0.00000000E+00  0.00000000E+00  0.00000000E+00
  0.00000000E+00  0.00000000E+00  0.00000000E+00
  0.00000000E+00  0.00000000E+00  0.00000000E+00
  0.00000000E+00  0.00000000E+00  0.00000000E+00
  0.00000000E+00  0.00000000E+00  0.00000000E+00
  0.00000000E+00  0.00000000E+00  0.00000000E+00
  0.00000000E+00  0.00000000E+00  0.00000000E+00
  0.00000000E+00  0.00000000E+00  0.00000000E+00
  0.00000000E+00  0.00000000E+00  0.00000000E+00
  0.00000000E+00  0.00000000E+00  0.00000000E+00
  0.00000000E+00  0.00000000E+00  0.00000000E+00
  0.00000000E+00  0.00000000E+00  0.00000000E+00
  0.00000000E+00  0.00000000E+00  0.00000000E+00
  0.00000000E+00  0.00000000E+00  0.00000000E+00
  0.00000000E+00  0.00000000E+00  0.00000000E+00
  0.00000000E+00  0.00000000E+00  0.00000000E+00
  0.00000000E+00  0.00000000E+00  0.00000000E+00
  0.00000000E+00  0.00000000E+00  0.00000000E+00
  0.00000000E+00  0.00000000E+00  0.00000000E+00
  0.00000000E+00  0.00000000E+00  0.00000000E+00
  0.00000000E+00  0.00000000E+00  0.00000000E+00
  0.00000000E+00  0.00000000E+00  0.00000000E+00
  0.00000000E+00  0.00000000E+00  0.00000000E+00
  0.00000000E+00  0.00000000E+00  0.00000000E+00
  0.00000000E+00  0.00000000E+00  0.00000000E+00
  0.00000000E+00  0.00000000E+00  0.00000000E+00
  0.00000000E+00  0.00000000E+00  0.00000000E+00
  0.00000000E+00  0.00000000E+00  0.00000000E+00
