title                                   
    1.000000000000000     
     9.9584989974354468   -0.0508202705758311   -0.0091854091347199
    -0.0506859383431828   10.0246457937906754    0.0222384433713326
    -0.0062289562518120    0.0147326391095613    6.7722329476425411
   Hf   Nb   Ta   Ti   V 
    11    15     3     3     4
Direct
  0.1695041518532892  0.4976343194603083  0.2338356240454371
  0.8177405354475640  0.8210742018427937  0.2630545239935100
 -0.0032236760691284 -0.0109648115548712  0.0044702058499196
  0.8366131902522941  0.1710503805564583  0.2594961345953536
  0.1678594131560898  0.1772366811612159  0.2509667414241822
  0.3388575724124170  0.6741799102046785  0.5114078843323827
  0.4973798190832424  0.1608671051556887  0.2535798397038741
  0.1684643521888473  0.1728864140420718  0.7518390004651514
  0.6671439721312128  0.3336667102992414 -0.0160728071582080
  0.8360261237436650  0.1608816134934581  0.7214194932661141
  0.8343504229155190  0.5003231761744029  0.2533320788835953
  0.4969720755586804  0.5066897464617061  0.7550969927410657
  0.8367711571969624  0.5094150292596682  0.7472468021648319
  0.0022440708577424  0.6735223753351525 -0.0084059965981361
  0.1688648820560014  0.5016440184905893  0.7694320645479760
  0.3314976037071763 -0.0127490053126974 -0.0032258800522286
  0.3460612292848859  0.3433433306135925  0.5081919471836176
  0.6641006736497579 -0.0048586904859553 -0.0155039619218685
  0.3345751872780489 -0.0124830238955602  0.5060218368500310
  0.6428159052499184 -0.0201075963072731  0.5178056797265248
  0.3483644512363473  0.3416231781120733 -0.0059679809422723
  0.0091226988249688  0.6644218015082144  0.5073275325647099
  0.0109005921109021 -0.0145768293724458  0.4910432931096498
  0.1701114621295176  0.8330066711845816  0.7534610414279597
  0.1730351670405126  0.8266961302787623  0.2459869156227715
  0.4919068058917341  0.1579757575040869  0.7510331693318705
  0.8258020141051288  0.8296818980296750  0.7346922821297418
  0.5045760825902150  0.5110528496432125  0.2489066997208309
  0.6601843558722232  0.6651052538703044 -0.0230373552849985
  0.6505316372158793  0.3497282043830737  0.5177741742079622
  0.0074061231797082  0.3584189985845212  0.5327939975098908
  0.5051558613612442  0.8255474197259735  0.2330020722183947
  0.3408471771476501  0.6723567968266941 -0.0144045887922898
 -0.0116385351381861  0.3458971861248956 -0.0359439499318611
  0.6568158361239077  0.6577636041144570  0.5282938119636164
  0.5022596083540625  0.8320491944872518  0.7710506811008968
 
  0.00000000E+00  0.00000000E+00  0.00000000E+00
  0.00000000E+00  0.00000000E+00  0.00000000E+00
  0.00000000E+00  0.00000000E+00  0.00000000E+00
  0.00000000E+00  0.00000000E+00  0.00000000E+00
  0.00000000E+00  0.00000000E+00  0.00000000E+00
  0.00000000E+00  0.00000000E+00  0.00000000E+00
  0.00000000E+00  0.00000000E+00  0.00000000E+00
  0.00000000E+00  0.00000000E+00  0.00000000E+00
  0.00000000E+00  0.00000000E+00  0.00000000E+00
  0.00000000E+00  0.00000000E+00  0.00000000E+00
  0.00000000E+00  0.00000000E+00  0.00000000E+00
  0.00000000E+00  0.00000000E+00  0.00000000E+00
  0.00000000E+00  0.00000000E+00  0.00000000E+00
  0.00000000E+00  0.00000000E+00  0.00000000E+00
  0.00000000E+00  0.00000000E+00  0.00000000E+00
  0.00000000E+00  0.00000000E+00  0.00000000E+00
  0.00000000E+00  0.00000000E+00  0.00000000E+00
  0.00000000E+00  0.00000000E+00  0.00000000E+00
  0.00000000E+00  0.00000000E+00  0.00000000E+00
  0.00000000E+00  0.00000000E+00  0.00000000E+00
  0.00000000E+00  0.00000000E+00  0.00000000E+00
  0.00000000E+00  0.00000000E+00  0.00000000E+00
  0.00000000E+00  0.00000000E+00  0.00000000E+00
  0.00000000E+00  0.00000000E+00  0.00000000E+00
  0.00000000E+00  0.00000000E+00  0.00000000E+00
  0.00000000E+00  0.00000000E+00  0.00000000E+00
  0.00000000E+00  0.00000000E+00  0.00000000E+00
  0.00000000E+00  0.00000000E+00  0.00000000E+00
  0.00000000E+00  0.00000000E+00  0.00000000E+00
  0.00000000E+00  0.00000000E+00  0.00000000E+00
  0.00000000E+00  0.00000000E+00  0.00000000E+00
  0.00000000E+00  0.00000000E+00  0.00000000E+00
  0.00000000E+00  0.00000000E+00  0.00000000E+00
  0.00000000E+00  0.00000000E+00  0.00000000E+00
  0.00000000E+00  0.00000000E+00  0.00000000E+00
  0.00000000E+00  0.00000000E+00  0.00000000E+00
