title                                   
    1.000000000000000     
     9.3480907140458473   -0.0057510246707590   -0.0107372570345303
    -0.0057509368327339    9.3498653379477847    0.0063761316050264
    -0.0071555209526975    0.0042515903848622    6.2311473805014552
   Mo   V    W 
    12    12    12
Direct
  0.8346320958576199  0.4999382440634483  0.7498647763198696
  0.5019461239969721  0.8313524808125520  0.2553430606467311
  0.3334318581615962  0.3365020261517460  0.4976008663838586
  0.1662071154737709  0.5014230696228621  0.2518434461274159
 -0.0009255715638104 -0.0033947250295103 -0.0007308172485324
  0.8329860075021212  0.1665462986877464  0.7473794395525530
  0.3332693091877083 -0.0014387419911816  0.5002523288449265
  0.8326935009941190  0.1655898166641428  0.2511174405811721
 -0.0005536928588144  0.3354753398229046 -0.0018646177083426
  0.6671531156710603  0.0002636437678990  0.0045411749960974
  0.5002997134047892  0.5012991940743255  0.7473272726021934
  0.8337536276995052  0.8338439702205152  0.7479407215335103
  0.6666265973597182  0.6674203682356876  0.4982263762003565
  0.6691386688520968 -0.0008028437339019  0.4987275969423940
 -0.0009472873913458  0.3334236834546171  0.5005735574979109
  0.5000774316333194  0.1678014163264556  0.2499617243247393
  0.3336396112325410  0.6655476418057102  0.5013332498009926
  0.6655494044296126  0.3335743184189447  0.0005102548696536
  0.1664779476360412  0.5011242649021962  0.7494366961477609
  0.0003687516091691  0.6674702420587741 -0.0014946849722933
  0.8341706440872417  0.8331593908662082  0.2517489710187646
  0.1669397951998379  0.8319111833455244  0.7499878532131634
  0.5007922789032565  0.4992737769838963  0.2501235926334378
 -0.0031375424913899 -0.0001199418051348  0.5003177428157266
  0.8329422206583929  0.5015222256501234  0.2495079804415350
  0.3334996127875688 -0.0006429074061636  0.0009775895193781
  0.1648595130397156  0.1666555686846029  0.2532386009653536
  0.3318277031106016  0.6656349065083951 -0.0006359386080129
  0.5005536078934141  0.8325743055478191  0.7463172231514575
  0.1647314670280591  0.1670846680388240  0.7470394890800102
  0.6682913637407463  0.6657760748434919  0.0019264652372894
  0.0004238882908412  0.6675283353450682  0.5029123526146223
  0.3353385028996609  0.3345723544004328  0.0004654695037340
  0.1638328286414409  0.8325160346441345  0.2519460778404787
  0.5022665237288528  0.1660166717602119  0.7498644180081498
  0.6668432635939708  0.3335776442566317  0.4963722491219457
 
  0.00000000E+00  0.00000000E+00  0.00000000E+00
  0.00000000E+00  0.00000000E+00  0.00000000E+00
  0.00000000E+00  0.00000000E+00  0.00000000E+00
  0.00000000E+00  0.00000000E+00  0.00000000E+00
  0.00000000E+00  0.00000000E+00  0.00000000E+00
  0.00000000E+00  0.00000000E+00  0.00000000E+00
  0.00000000E+00  0.00000000E+00  0.00000000E+00
  0.00000000E+00  0.00000000E+00  0.00000000E+00
  0.00000000E+00  0.00000000E+00  0.00000000E+00
  0.00000000E+00  0.00000000E+00  0.00000000E+00
  0.00000000E+00  0.00000000E+00  0.00000000E+00
  0.00000000E+00  0.00000000E+00  0.00000000E+00
  0.00000000E+00  0.00000000E+00  0.00000000E+00
  0.00000000E+00  0.00000000E+00  0.00000000E+00
  0.00000000E+00  0.00000000E+00  0.00000000E+00
  0.00000000E+00  0.00000000E+00  0.00000000E+00
  0.00000000E+00  0.00000000E+00  0.00000000E+00
  0.00000000E+00  0.00000000E+00  0.00000000E+00
  0.00000000E+00  0.00000000E+00  0.00000000E+00
  0.00000000E+00  0.00000000E+00  0.00000000E+00
  0.00000000E+00  0.00000000E+00  0.00000000E+00
  0.00000000E+00  0.00000000E+00  0.00000000E+00
  0.00000000E+00  0.00000000E+00  0.00000000E+00
  0.00000000E+00  0.00000000E+00  0.00000000E+00
  0.00000000E+00  0.00000000E+00  0.00000000E+00
  0.00000000E+00  0.00000000E+00  0.00000000E+00
  0.00000000E+00  0.00000000E+00  0.00000000E+00
  0.00000000E+00  0.00000000E+00  0.00000000E+00
  0.00000000E+00  0.00000000E+00  0.00000000E+00
  0.00000000E+00  0.00000000E+00  0.00000000E+00
  0.00000000E+00  0.00000000E+00  0.00000000E+00
  0.00000000E+00  0.00000000E+00  0.00000000E+00
  0.00000000E+00  0.00000000E+00  0.00000000E+00
  0.00000000E+00  0.00000000E+00  0.00000000E+00
  0.00000000E+00  0.00000000E+00  0.00000000E+00
  0.00000000E+00  0.00000000E+00  0.00000000E+00
