title                                   
    1.000000000000000     
     9.5895690269762550    0.0024937182100240   -0.0002599543092182
     0.0024924986069911    9.5869518733843879   -0.0057504765762427
    -0.0001760116854036   -0.0038330347201413    6.3911493260110301
   Nb   Ti   V    W 
    10     3     4    19
Direct
  0.0007947183501201  0.3339395042511799 -0.0004814226471349
  0.1676189441933274  0.8303203680490727  0.2523205496389812
  0.3374675619392893  0.3317248726088506  0.5001949303068558
  0.5012391013917140  0.8358010142707235  0.2500624012313822
  0.8332415741237998  0.5007128415381475  0.2541743245785733
  0.8321769210165050  0.8338444850638072  0.7488150053474725
  0.0008913641912655  0.0016321412994630  0.5028920147018828
  0.1693307521118872  0.1661452802074218  0.2494040050178919
  0.6654243615380450  0.6651872296615357 -0.0010424277781359
 -0.0003911668666520  0.0008633893806142 -0.0001615475475967
  0.3362764018752325  0.3326106160958307 -0.0035380108802363
  0.8320286597901038  0.8335196153118390  0.2532346615264338
  0.8250815136560042  0.1707072719332336  0.7471064858723482
  0.5036761539706439  0.1646480355887722  0.2504181819541297
  0.0044046057289192  0.6627578126374822  0.5054277709761670
  0.6630063902548241  0.3324244501848105  0.4977624346706505
  0.5057307744606890  0.1640200619068730  0.7474898090424614
  0.4986605384814415  0.8359849171673279  0.7494842975907795
  0.6646590930601535  0.6625885335744035  0.5032631716780034
  0.5017200589321428  0.4989429580869271  0.7474813934934816
  0.0030545041189418  0.6639001604970781 -0.0030217811967168
  0.3339322500724256  0.6627276134953713 -0.0024726646277591
  0.3362040602466128  0.0027024031458887 -0.0034212217373417
  0.8330852710322232  0.4977210852285874  0.7467258700009425
  0.3367548911955664  0.0015645089788076  0.5028876503492702
  0.1660791056601857  0.5029898082301100  0.7472113704654556
  0.6616151691481336  0.0063858305910573 -0.0008367456435179
  0.5014303570190550  0.4976170822162759  0.2504429796393861
  0.1683215219638219  0.1655158357309774  0.7485611424497939
  0.8261356518818384  0.1683323136745169  0.2532777964242808
  0.6620133071073977  0.0066245220147036  0.4997930873884734
  0.6608465842704744  0.3319789482023545  0.0003322064961590
 -0.0009663321470938  0.3359460302428593  0.5009411086300829
  0.1655447545080294  0.5026435184332680  0.2527927251130199
  0.1697598485023648  0.8304510852276276  0.7499230606338678
  0.3331507332205684  0.6645238552722019  0.5025553868402122
 
  0.00000000E+00  0.00000000E+00  0.00000000E+00
  0.00000000E+00  0.00000000E+00  0.00000000E+00
  0.00000000E+00  0.00000000E+00  0.00000000E+00
  0.00000000E+00  0.00000000E+00  0.00000000E+00
  0.00000000E+00  0.00000000E+00  0.00000000E+00
  0.00000000E+00  0.00000000E+00  0.00000000E+00
  0.00000000E+00  0.00000000E+00  0.00000000E+00
  0.00000000E+00  0.00000000E+00  0.00000000E+00
  0.00000000E+00  0.00000000E+00  0.00000000E+00
  0.00000000E+00  0.00000000E+00  0.00000000E+00
  0.00000000E+00  0.00000000E+00  0.00000000E+00
  0.00000000E+00  0.00000000E+00  0.00000000E+00
  0.00000000E+00  0.00000000E+00  0.00000000E+00
  0.00000000E+00  0.00000000E+00  0.00000000E+00
  0.00000000E+00  0.00000000E+00  0.00000000E+00
  0.00000000E+00  0.00000000E+00  0.00000000E+00
  0.00000000E+00  0.00000000E+00  0.00000000E+00
  0.00000000E+00  0.00000000E+00  0.00000000E+00
  0.00000000E+00  0.00000000E+00  0.00000000E+00
  0.00000000E+00  0.00000000E+00  0.00000000E+00
  0.00000000E+00  0.00000000E+00  0.00000000E+00
  0.00000000E+00  0.00000000E+00  0.00000000E+00
  0.00000000E+00  0.00000000E+00  0.00000000E+00
  0.00000000E+00  0.00000000E+00  0.00000000E+00
  0.00000000E+00  0.00000000E+00  0.00000000E+00
  0.00000000E+00  0.00000000E+00  0.00000000E+00
  0.00000000E+00  0.00000000E+00  0.00000000E+00
  0.00000000E+00  0.00000000E+00  0.00000000E+00
  0.00000000E+00  0.00000000E+00  0.00000000E+00
  0.00000000E+00  0.00000000E+00  0.00000000E+00
  0.00000000E+00  0.00000000E+00  0.00000000E+00
  0.00000000E+00  0.00000000E+00  0.00000000E+00
  0.00000000E+00  0.00000000E+00  0.00000000E+00
  0.00000000E+00  0.00000000E+00  0.00000000E+00
  0.00000000E+00  0.00000000E+00  0.00000000E+00
  0.00000000E+00  0.00000000E+00  0.00000000E+00
