title                                   
    1.000000000000000     
     9.4149505263129978   -0.0066835697805675   -0.0834637579231175
    -0.0066581912958383    9.4199871397460342    0.0429617941682164
    -0.0552935945126580    0.0284308208318943    6.3631522479638480
   Mo   Nb   Ta   Ti   V 
     6     1     2    15    12
Direct
  0.3305866752760169  0.0005047340020324  0.4952504502584013
  0.4933722987208831  0.1629092039146536  0.7502250967659846
  0.1710045540943083  0.8319409816832155  0.7492775107053208
  0.4948870877717783  0.8313399614890975  0.2495458579893795
  0.4877742915437604  0.5101194095038281  0.7550346085879264
  0.0024913181738892  0.6681141217214073  0.0046979994101414
  0.6633941421457680  0.3370148929064715  0.5173692178148473
  0.0066733185633836  0.6686077763868788  0.4995763291366832
  0.8356649906131702  0.4965179728283374  0.2505866243346135
 -0.0022069831363895  0.3184652367237055  0.0224019390894144
  0.0031620585424563  0.0035566125357788  0.0215389835087292
  0.1553578106669533  0.1676234456056105  0.7362545964034438
  0.4985598930184165  0.8424416935604306  0.7338338287069395
  0.4878714692371187  0.4970400004358649  0.2408197619786253
  0.6660635394307738  0.3316394004864379 -0.0117326698943141
  0.8417325515851229  0.1567124924014086  0.7246485802995568
  0.8338321558098195  0.8406891294034561  0.7425285745308808
  0.6694558737090569  0.0056464286740228  0.0166608322892949
  0.4942973317026795  0.1748653813997934  0.2542861320567338
  0.6635687611206602  0.6649312534013861 -0.0066460322253226
  0.3300388310964674  0.3409462000464122  0.5141351501214484
  0.6650606755292486  0.6694808415311472  0.4966172362958785
  0.3261000289900559 -0.0006908179740115  0.0024387989908141
  0.1611705241203933  0.4976374039080753  0.7689091712120405
  0.0058369897746250  0.3323862443196609  0.4821378987553886
  0.3305878734048713  0.3277404344064901 -0.0059462377185173
  0.8430314211514521  0.8332412283645015  0.2547471159327187
  0.0027400202890030 -0.0081818193783069  0.4762318272551466
  0.8333778870075336  0.1632650774532328  0.2848722139468842
  0.6713655467278284 -0.0054964593821736  0.4701118807441444
  0.1673379127358160  0.8265456622130988  0.2497212136212371
  0.3323459584090600  0.6667276256994045  0.4918175329886335
  0.1749165654021070  0.1582202730557062  0.2751119276849743
  0.1746697285506837  0.5083745408886808  0.2381006492325925
  0.8499042763681814  0.5032556608402327  0.7543501496581684
  0.3339726218530480  0.6758677749440302  0.0004852495311671
 
  0.00000000E+00  0.00000000E+00  0.00000000E+00
  0.00000000E+00  0.00000000E+00  0.00000000E+00
  0.00000000E+00  0.00000000E+00  0.00000000E+00
  0.00000000E+00  0.00000000E+00  0.00000000E+00
  0.00000000E+00  0.00000000E+00  0.00000000E+00
  0.00000000E+00  0.00000000E+00  0.00000000E+00
  0.00000000E+00  0.00000000E+00  0.00000000E+00
  0.00000000E+00  0.00000000E+00  0.00000000E+00
  0.00000000E+00  0.00000000E+00  0.00000000E+00
  0.00000000E+00  0.00000000E+00  0.00000000E+00
  0.00000000E+00  0.00000000E+00  0.00000000E+00
  0.00000000E+00  0.00000000E+00  0.00000000E+00
  0.00000000E+00  0.00000000E+00  0.00000000E+00
  0.00000000E+00  0.00000000E+00  0.00000000E+00
  0.00000000E+00  0.00000000E+00  0.00000000E+00
  0.00000000E+00  0.00000000E+00  0.00000000E+00
  0.00000000E+00  0.00000000E+00  0.00000000E+00
  0.00000000E+00  0.00000000E+00  0.00000000E+00
  0.00000000E+00  0.00000000E+00  0.00000000E+00
  0.00000000E+00  0.00000000E+00  0.00000000E+00
  0.00000000E+00  0.00000000E+00  0.00000000E+00
  0.00000000E+00  0.00000000E+00  0.00000000E+00
  0.00000000E+00  0.00000000E+00  0.00000000E+00
  0.00000000E+00  0.00000000E+00  0.00000000E+00
  0.00000000E+00  0.00000000E+00  0.00000000E+00
  0.00000000E+00  0.00000000E+00  0.00000000E+00
  0.00000000E+00  0.00000000E+00  0.00000000E+00
  0.00000000E+00  0.00000000E+00  0.00000000E+00
  0.00000000E+00  0.00000000E+00  0.00000000E+00
  0.00000000E+00  0.00000000E+00  0.00000000E+00
  0.00000000E+00  0.00000000E+00  0.00000000E+00
  0.00000000E+00  0.00000000E+00  0.00000000E+00
  0.00000000E+00  0.00000000E+00  0.00000000E+00
  0.00000000E+00  0.00000000E+00  0.00000000E+00
  0.00000000E+00  0.00000000E+00  0.00000000E+00
  0.00000000E+00  0.00000000E+00  0.00000000E+00
