title                                   
    1.000000000000000     
     9.9298188786546095   -0.0357780698810850    0.0759098395402573
    -0.0356094057756686    9.9572710911962439    0.0230737574582362
     0.0505027842251111    0.0155738467480885    6.6135295597704866
   Hf   Mo   Nb   Ta   Ti
     7     7     8     7     7
Direct
  0.6734633552848704  0.0183541775911461 -0.0054636106232877
  0.5105889871636600  0.8427562526337478  0.7369120029418859
 -0.0104391391704036  0.3256444930115747  0.0048232776721998
  0.1616763582454596  0.8296551416052058  0.7661844518012912
  0.3377464929071880  0.6621741159308109  0.4849025445567947
  0.8405350378326353  0.8320167082698140  0.2388671387348931
  0.4960749578929864  0.1725574407144256  0.2718550145509371
  0.8352541287260764  0.1689692678283677  0.2598585695991027
  0.5060707389885395  0.8317525778764241  0.2451819645549681
  0.5005078220470964  0.4900523329361824  0.2501621472222356
  0.8397382307418968  0.1709196688537727  0.7449663840771923
 -0.0054155873998118  0.6569642953266985 -0.0023669185478777
  0.4998789380209374  0.4948880837618046  0.7506766937742534
  0.0001875496213204  0.0104694228464891 -0.0030420805781042
  0.1591160523645370  0.4998941682036067  0.2453422371411837
 -0.0053294686771801  0.3279980461157538  0.5049681910690080
 -0.0006332596760703  0.0058891829733233  0.5017049009026957
  0.8273041845113063  0.5100652699310614  0.2526373079045315
  0.8319937058081266  0.5091463922926446  0.7513668628026797
  0.8411204825079517  0.8315121999439592  0.7485858509606055
  0.6605366562265420  0.6629909981524726  0.4916075169035665
  0.6664603926754563  0.3383556942885667  0.5123088251698427
  0.3331441375260334  0.3406437843807614  0.0014507397257356
  0.1749686462177625  0.1571768258713216  0.7554662579261936
  0.0008008505647154  0.6602386965507050  0.4991232476086945
  0.3430601732056043 -0.0088893603848937  0.0223913247807183
  0.1691775699643507  0.1572188469176464  0.2518376161830413
  0.3300578526283802  0.3452475069442224  0.5068267989568886
  0.1594316588892455  0.5037668383549860  0.7590583784655464
  0.6912190109478665  0.0194593042537067  0.5046803802291379
  0.4869110567937933  0.1674589242036464  0.7406329372621807
  0.1501522072773269  0.8324052857029244  0.2291441359607466
  0.6485953693923330  0.6572170143324130  0.0041193996735495
  0.3501826289383783  0.6551319554687729  0.0055942671357976
  0.3297155880287718 -0.0215297891987299  0.4700847054112012
  0.6661466329823138  0.3414282355146661 -0.0024494619100287
 
  0.00000000E+00  0.00000000E+00  0.00000000E+00
  0.00000000E+00  0.00000000E+00  0.00000000E+00
  0.00000000E+00  0.00000000E+00  0.00000000E+00
  0.00000000E+00  0.00000000E+00  0.00000000E+00
  0.00000000E+00  0.00000000E+00  0.00000000E+00
  0.00000000E+00  0.00000000E+00  0.00000000E+00
  0.00000000E+00  0.00000000E+00  0.00000000E+00
  0.00000000E+00  0.00000000E+00  0.00000000E+00
  0.00000000E+00  0.00000000E+00  0.00000000E+00
  0.00000000E+00  0.00000000E+00  0.00000000E+00
  0.00000000E+00  0.00000000E+00  0.00000000E+00
  0.00000000E+00  0.00000000E+00  0.00000000E+00
  0.00000000E+00  0.00000000E+00  0.00000000E+00
  0.00000000E+00  0.00000000E+00  0.00000000E+00
  0.00000000E+00  0.00000000E+00  0.00000000E+00
  0.00000000E+00  0.00000000E+00  0.00000000E+00
  0.00000000E+00  0.00000000E+00  0.00000000E+00
  0.00000000E+00  0.00000000E+00  0.00000000E+00
  0.00000000E+00  0.00000000E+00  0.00000000E+00
  0.00000000E+00  0.00000000E+00  0.00000000E+00
  0.00000000E+00  0.00000000E+00  0.00000000E+00
  0.00000000E+00  0.00000000E+00  0.00000000E+00
  0.00000000E+00  0.00000000E+00  0.00000000E+00
  0.00000000E+00  0.00000000E+00  0.00000000E+00
  0.00000000E+00  0.00000000E+00  0.00000000E+00
  0.00000000E+00  0.00000000E+00  0.00000000E+00
  0.00000000E+00  0.00000000E+00  0.00000000E+00
  0.00000000E+00  0.00000000E+00  0.00000000E+00
  0.00000000E+00  0.00000000E+00  0.00000000E+00
  0.00000000E+00  0.00000000E+00  0.00000000E+00
  0.00000000E+00  0.00000000E+00  0.00000000E+00
  0.00000000E+00  0.00000000E+00  0.00000000E+00
  0.00000000E+00  0.00000000E+00  0.00000000E+00
  0.00000000E+00  0.00000000E+00  0.00000000E+00
  0.00000000E+00  0.00000000E+00  0.00000000E+00
  0.00000000E+00  0.00000000E+00  0.00000000E+00
