title                                   
    1.000000000000000     
     9.8601624954052109   -0.0343718238028896   -0.0006586305755253
    -0.0343939816222192    9.9653896254930832   -0.0918811316495534
    -0.0005140475421848   -0.0619209806790782    6.7643748916530990
   Ta   Ti   W    Zr
    11    14     4     7
Direct
  0.6462155191647327  0.6706112505056865  0.0209047235550348
  0.0116036101749535  0.3209785267843520  0.5056457602144725
 -0.0015246225822098  0.3359919348861911 -0.0024858437887447
  0.3320738714709286 -0.0034519921481537  0.4946241243151345
  0.4951736008470926  0.1465253450658807  0.7555583531679995
  0.3235528196182647  0.3216874663075437  0.5275136993782752
  0.6651788854552184 -0.0067342201136832  0.0057484534606201
  0.8326276481760644  0.1645541958498936  0.2434723913337724
  0.1649362136303297  0.5017284844368964  0.7458764400187480
  0.8340123658985557  0.8368690402973910  0.2448289397068092
  0.4954288631611790  0.8324931697948629  0.7467496452523477
  0.3341817369099985  0.6620266088550798  0.0227003758917781
  0.1685554303539660  0.1620332901033951  0.7876587317057863
  0.1713620248331365  0.1658545661404663  0.2237608189565642
  0.1696317069009283  0.8564204252855822  0.2217605563828960
  0.8371447884386668  0.1539597322027945  0.7711461582211253
  0.4903807415650579  0.4895508927658017  0.2669297660058522
  0.0241450957282701  0.6675707414829372  0.4597189115563252
  0.6465058651765004  0.6831655240468786  0.4678033023571811
  0.0206034296379634  0.6562577707207006  0.0382140909446429
  0.1822255822181301  0.4722756228862622  0.2537150789793730
  0.3467179260122086  0.3479488568354219 -0.0335442116397580
  0.6642632380191112  0.3359924643211595 -0.0214244182945736
  0.3283538550393498  0.6795463395293591  0.4684372037204340
  0.4853609089722540  0.5273745911895396  0.7285557007115405
  0.6645042068151605 -0.0069845707807027  0.4927644277278619
  0.4952512298777880  0.8435871921085689  0.2450633588079963
  0.3408787217961976 -0.0055520231958871 -0.0004043094678011
 -0.0063258067701103  0.0024959913027995  0.0113865354351510
  0.8281473614713488  0.4961379284267313  0.2610143964664164
  0.8317395972192385  0.8292303837962173  0.7484715374139517
  0.1669898835868298  0.8280877329425187  0.7645477328775255
  0.6623185739131533  0.3284098966842294  0.5391116498692718
  0.0067575662291369  0.0146149686175589  0.4976286297932448
  0.4962323421010719  0.1738551467087213  0.2487069670078505
  0.8447952189395338  0.5148867253570070  0.7478403219548957
 
  0.00000000E+00  0.00000000E+00  0.00000000E+00
  0.00000000E+00  0.00000000E+00  0.00000000E+00
  0.00000000E+00  0.00000000E+00  0.00000000E+00
  0.00000000E+00  0.00000000E+00  0.00000000E+00
  0.00000000E+00  0.00000000E+00  0.00000000E+00
  0.00000000E+00  0.00000000E+00  0.00000000E+00
  0.00000000E+00  0.00000000E+00  0.00000000E+00
  0.00000000E+00  0.00000000E+00  0.00000000E+00
  0.00000000E+00  0.00000000E+00  0.00000000E+00
  0.00000000E+00  0.00000000E+00  0.00000000E+00
  0.00000000E+00  0.00000000E+00  0.00000000E+00
  0.00000000E+00  0.00000000E+00  0.00000000E+00
  0.00000000E+00  0.00000000E+00  0.00000000E+00
  0.00000000E+00  0.00000000E+00  0.00000000E+00
  0.00000000E+00  0.00000000E+00  0.00000000E+00
  0.00000000E+00  0.00000000E+00  0.00000000E+00
  0.00000000E+00  0.00000000E+00  0.00000000E+00
  0.00000000E+00  0.00000000E+00  0.00000000E+00
  0.00000000E+00  0.00000000E+00  0.00000000E+00
  0.00000000E+00  0.00000000E+00  0.00000000E+00
  0.00000000E+00  0.00000000E+00  0.00000000E+00
  0.00000000E+00  0.00000000E+00  0.00000000E+00
  0.00000000E+00  0.00000000E+00  0.00000000E+00
  0.00000000E+00  0.00000000E+00  0.00000000E+00
  0.00000000E+00  0.00000000E+00  0.00000000E+00
  0.00000000E+00  0.00000000E+00  0.00000000E+00
  0.00000000E+00  0.00000000E+00  0.00000000E+00
  0.00000000E+00  0.00000000E+00  0.00000000E+00
  0.00000000E+00  0.00000000E+00  0.00000000E+00
  0.00000000E+00  0.00000000E+00  0.00000000E+00
  0.00000000E+00  0.00000000E+00  0.00000000E+00
  0.00000000E+00  0.00000000E+00  0.00000000E+00
  0.00000000E+00  0.00000000E+00  0.00000000E+00
  0.00000000E+00  0.00000000E+00  0.00000000E+00
  0.00000000E+00  0.00000000E+00  0.00000000E+00
  0.00000000E+00  0.00000000E+00  0.00000000E+00
