title                                   
    1.000000000000000     
    10.0165025150900533    0.0494976737294463    0.0263436116854512
     0.0485080233212538    9.9426531270343546    0.0292198688869861
     0.0182644121389204    0.0196748818591758    6.5996529689177530
   Hf   Mo   V 
    18     8    10
Direct
  0.1730012008532285  0.5009748852875072  0.7677341645127187
  0.4834025431747599  0.8584842164584309  0.7474884141159693
  0.0183601252513397  0.3155654102935914  0.5198505270443373
  0.8157071712842142  0.1613813324238767  0.7359811241508184
  0.4933954554807549  0.1676708122772424  0.2581372058727644
  0.6500327321513915  0.3654557139029960  0.5136977036546756
 -0.0081867405749151  0.6767836307681141  0.5009228126641414
  0.6694085369525761 -0.0149945620730592  0.0084340407922716
  0.0092564953150861 -0.0080643773160007  0.4911353504861791
  0.6686378151558715  0.6712575873490773  0.4984147988796981
  0.0033759702771859 -0.0058413996106204  0.0088133762316388
  0.1741103054257144  0.4914974092067042  0.2372383579890684
  0.8619631877079826  0.4868174687975226  0.2225953715913822
  0.6620221434816711  0.6696374950983144  0.0024703621409363
  0.8259130739019570  0.1744579329054272  0.2535601114895913
  0.1808177837139280  0.8195343279936510  0.7760689612359256
  0.3565464288192196  0.6628622086776224  0.4823399151790543
  0.6526804990099931  0.3535188580114911 -0.0183123562713427
  0.8298469269762838  0.8305646293104915  0.2482716482538386
  0.3337818617164186  0.3277917396236489  0.5095718794964899
  0.8309678544769924  0.8348847455581672  0.7486762780826753
  0.8499812696607031  0.5032118920119115  0.7660756637182926
  0.6630189280856738 -0.0079527927187028  0.4932514279377911
  0.3356322351638249  0.3254495138024409 -0.0022659883928976
  0.1781971183390065  0.1620602724963163  0.7627643309623551
  0.3240634734097120  0.0043208601686235  0.4883070466856123
  0.1987819087846758  0.8434837165086571  0.2326333376503489
  0.3581000791614841  0.6607981529904173  0.0220042709407863
  0.4904864898286068  0.8589631190784845  0.2679212423267355
  0.0150093355703999  0.3075090474245864 -0.0221875733496185
  0.4840040143564148  0.1730261701147826  0.7374917975450862
  0.1860792194370640  0.1615348889401392  0.2445482254577175
  0.4654513103585191  0.4922287963886440  0.7709064656299004
  0.4746864648046473  0.4851209308260034  0.2308266386148969
  0.3162965890107316  0.0113020165379445  0.0141487915564453
 -0.0248298065231180  0.6787033504855554 -0.0195157248762869
 
  0.00000000E+00  0.00000000E+00  0.00000000E+00
  0.00000000E+00  0.00000000E+00  0.00000000E+00
  0.00000000E+00  0.00000000E+00  0.00000000E+00
  0.00000000E+00  0.00000000E+00  0.00000000E+00
  0.00000000E+00  0.00000000E+00  0.00000000E+00
  0.00000000E+00  0.00000000E+00  0.00000000E+00
  0.00000000E+00  0.00000000E+00  0.00000000E+00
  0.00000000E+00  0.00000000E+00  0.00000000E+00
  0.00000000E+00  0.00000000E+00  0.00000000E+00
  0.00000000E+00  0.00000000E+00  0.00000000E+00
  0.00000000E+00  0.00000000E+00  0.00000000E+00
  0.00000000E+00  0.00000000E+00  0.00000000E+00
  0.00000000E+00  0.00000000E+00  0.00000000E+00
  0.00000000E+00  0.00000000E+00  0.00000000E+00
  0.00000000E+00  0.00000000E+00  0.00000000E+00
  0.00000000E+00  0.00000000E+00  0.00000000E+00
  0.00000000E+00  0.00000000E+00  0.00000000E+00
  0.00000000E+00  0.00000000E+00  0.00000000E+00
  0.00000000E+00  0.00000000E+00  0.00000000E+00
  0.00000000E+00  0.00000000E+00  0.00000000E+00
  0.00000000E+00  0.00000000E+00  0.00000000E+00
  0.00000000E+00  0.00000000E+00  0.00000000E+00
  0.00000000E+00  0.00000000E+00  0.00000000E+00
  0.00000000E+00  0.00000000E+00  0.00000000E+00
  0.00000000E+00  0.00000000E+00  0.00000000E+00
  0.00000000E+00  0.00000000E+00  0.00000000E+00
  0.00000000E+00  0.00000000E+00  0.00000000E+00
  0.00000000E+00  0.00000000E+00  0.00000000E+00
  0.00000000E+00  0.00000000E+00  0.00000000E+00
  0.00000000E+00  0.00000000E+00  0.00000000E+00
  0.00000000E+00  0.00000000E+00  0.00000000E+00
  0.00000000E+00  0.00000000E+00  0.00000000E+00
  0.00000000E+00  0.00000000E+00  0.00000000E+00
  0.00000000E+00  0.00000000E+00  0.00000000E+00
  0.00000000E+00  0.00000000E+00  0.00000000E+00
  0.00000000E+00  0.00000000E+00  0.00000000E+00
