title                                   
    1.000000000000000     
     9.5546499947819843    0.0155956917013346    0.1012615089719277
     0.0159051622514433    9.5862194398609653   -0.0279611552566465
     0.0674152181545697   -0.0184690780682392    6.3464188241661601
   Mo   V    W    Zr
     4    14    11     7
Direct
  0.3355189375454062  0.6671025052664511  0.5026328712410523
  0.8309537850425275  0.1569415486850968  0.2461270982890330
  0.1742931499934331  0.5075046982550709  0.7491985004490611
  0.1713903783169807  0.8339009702790735  0.2539034819850100
  0.1759106626159419  0.8333710825904559  0.7382957835106768
  0.5038875280429496  0.5125920906485120  0.7683226775321506
  0.3376727917493583  0.6673381833573787  0.0008671685395243
  0.8254416226494071  0.5212124788840493  0.2619951735816516
 -0.0045442965942149 -0.0122798924050295  0.4793019549155570
  0.6628861974080239  0.0034929846068896  0.0027059099693423
  0.0073138462439756  0.6661511902221792  0.4924574351421396
  0.5040815113732103  0.8309093344964075  0.2461399745812231
  0.5020114153411696  0.1533270471883006  0.7615593501624249
  0.6590477165825596  0.6642076988412529  0.0076436133130448
 -0.0159371979470308 -0.0021128022251880  0.0167296438467790
  0.6636854027124754  0.6638294563090149  0.4955855018101082
  0.6638454493882501  0.3333021507051065 -0.0040594770770787
  0.8240491639654571  0.8348421761909371  0.2592931914180240
  0.8229936795655417  0.5097095654190491  0.7451390940111600
  0.3418801900724117 -0.0140989960157476  0.4954534188614572
  0.1719860131069271  0.5059474839986707  0.2565674922240919
 -0.0089563815530335  0.3452194347020892  0.5025776669386431
  0.5047408900606454  0.5121595791930691  0.2406821714510314
  0.6640945014922054 -0.0001958186568033  0.4938393580798399
  0.3447576149006963  0.3432060783790688 -0.0036645153530448
  0.8282943824680206  0.1586357077203559  0.7509490064414084
  0.5016372246458399  0.8281420809891171  0.7525511035515058
  0.5019908156388847  0.1558358101543669  0.2351693710554420
  0.3421230774916815 -0.0126975691256600 -0.0027020116500396
  0.3417047249497827  0.3351007462901364  0.5085963867283474
  0.0063502059740513  0.6724455346950697  0.0025624611320828
  0.8315885578651812  0.8336411512664909  0.7440047075768187
  0.6666309310110201  0.3336575983636465  0.4977928343340204
  0.1625618169311657  0.1520014769478115  0.7495438125255454
  0.1656420125673016  0.1630776944688694  0.2483766548550298
 -0.0115283216182026  0.3425795393144412  0.0038611340269354
 
  0.00000000E+00  0.00000000E+00  0.00000000E+00
  0.00000000E+00  0.00000000E+00  0.00000000E+00
  0.00000000E+00  0.00000000E+00  0.00000000E+00
  0.00000000E+00  0.00000000E+00  0.00000000E+00
  0.00000000E+00  0.00000000E+00  0.00000000E+00
  0.00000000E+00  0.00000000E+00  0.00000000E+00
  0.00000000E+00  0.00000000E+00  0.00000000E+00
  0.00000000E+00  0.00000000E+00  0.00000000E+00
  0.00000000E+00  0.00000000E+00  0.00000000E+00
  0.00000000E+00  0.00000000E+00  0.00000000E+00
  0.00000000E+00  0.00000000E+00  0.00000000E+00
  0.00000000E+00  0.00000000E+00  0.00000000E+00
  0.00000000E+00  0.00000000E+00  0.00000000E+00
  0.00000000E+00  0.00000000E+00  0.00000000E+00
  0.00000000E+00  0.00000000E+00  0.00000000E+00
  0.00000000E+00  0.00000000E+00  0.00000000E+00
  0.00000000E+00  0.00000000E+00  0.00000000E+00
  0.00000000E+00  0.00000000E+00  0.00000000E+00
  0.00000000E+00  0.00000000E+00  0.00000000E+00
  0.00000000E+00  0.00000000E+00  0.00000000E+00
  0.00000000E+00  0.00000000E+00  0.00000000E+00
  0.00000000E+00  0.00000000E+00  0.00000000E+00
  0.00000000E+00  0.00000000E+00  0.00000000E+00
  0.00000000E+00  0.00000000E+00  0.00000000E+00
  0.00000000E+00  0.00000000E+00  0.00000000E+00
  0.00000000E+00  0.00000000E+00  0.00000000E+00
  0.00000000E+00  0.00000000E+00  0.00000000E+00
  0.00000000E+00  0.00000000E+00  0.00000000E+00
  0.00000000E+00  0.00000000E+00  0.00000000E+00
  0.00000000E+00  0.00000000E+00  0.00000000E+00
  0.00000000E+00  0.00000000E+00  0.00000000E+00
  0.00000000E+00  0.00000000E+00  0.00000000E+00
  0.00000000E+00  0.00000000E+00  0.00000000E+00
  0.00000000E+00  0.00000000E+00  0.00000000E+00
  0.00000000E+00  0.00000000E+00  0.00000000E+00
  0.00000000E+00  0.00000000E+00  0.00000000E+00
