title                                   
    1.000000000000000     
     9.7266078409038528   -0.0476883226096515    0.0482270877382227
    -0.0474942351720761    9.7166622526285131    0.0112329396947605
     0.0321907014052044    0.0079939375808421    6.4068454486493600
   Cr   Hf   Ta   V 
     4     7    14    11
Direct
  0.6687836372325645 -0.0181012309528763  0.0035996331113680
  0.8563369209453870  0.5073435538875832  0.2557880732679266
  0.8285326593645110  0.8312371650969136  0.2580082604629068
  0.3405577375126543 -0.0022389258105031  0.4918037091479550
  0.1744233265585800  0.1592805425790786  0.2485139851182497
  0.6821392456575753  0.6708756129474529  0.0059443523378837
  0.6680448555461900  0.3591163462429225  0.0232034300425905
 -0.0106330791029781 -0.0225125273898474  0.0031566862117564
  0.1834026671553545  0.8224631314317778  0.7433549224826269
  0.4941101833491262  0.1611470924909539  0.7563874846679081
  0.8237122007499582  0.1659908482856860  0.7573923103921451
  0.0065414759926287  0.3467798625122750 -0.0008395032206531
  0.8307621510811980  0.1668449419180679  0.2526821529618176
  0.4940020239566681  0.1577415667971976  0.2476711844986648
  0.6706027434977354 -0.0131250827835053  0.4911240642426502
  0.6684363673609323  0.3529702857417421  0.4889121058283371
  0.1777445168085571  0.8245735124232588  0.2507490624530004
 -0.0103456025322838 -0.0161707574083715  0.4954514953802175
  0.3268511604282862  0.3419919622645174  0.5026879583289706
  0.6742378047025553  0.6687044121673460  0.4923934723990834
  0.4909176314037905  0.8374551776371794  0.2437271089296356
 -0.0077733722348883  0.6618668380105245  0.4933940535882495
  0.4950481591149518  0.8377392899339837  0.7494307267418769
  0.0055223939642040  0.3454013351711956  0.5041165720868380
  0.4867940803465740  0.5092580985746255  0.7491326098085569
  0.1687947873843549  0.5059426186043136  0.7589612958029909
  0.8206612246220208  0.8379424734870947  0.7440760157704595
  0.3386203578996646  0.6547494235426241  0.4834291957747822
 -0.0073800478942393  0.6558266698090810  0.0122623813263713
  0.3324452885641288  0.6522249315775465  0.0118276827805185
  0.4752475319540961  0.5145794611834658  0.2546752668341944
  0.3317630563769207 -0.0017078134898191 -0.0015504703587677
  0.3205749819033183  0.3457507143974702 -0.0084365359089148
  0.1761810174193996  0.1679380572262003  0.7485357201234878
  0.1727469015457636  0.5070833566642476  0.2391189363761669
  0.8515930113647397  0.5030370552285987  0.7493146002081517
 
  0.00000000E+00  0.00000000E+00  0.00000000E+00
  0.00000000E+00  0.00000000E+00  0.00000000E+00
  0.00000000E+00  0.00000000E+00  0.00000000E+00
  0.00000000E+00  0.00000000E+00  0.00000000E+00
  0.00000000E+00  0.00000000E+00  0.00000000E+00
  0.00000000E+00  0.00000000E+00  0.00000000E+00
  0.00000000E+00  0.00000000E+00  0.00000000E+00
  0.00000000E+00  0.00000000E+00  0.00000000E+00
  0.00000000E+00  0.00000000E+00  0.00000000E+00
  0.00000000E+00  0.00000000E+00  0.00000000E+00
  0.00000000E+00  0.00000000E+00  0.00000000E+00
  0.00000000E+00  0.00000000E+00  0.00000000E+00
  0.00000000E+00  0.00000000E+00  0.00000000E+00
  0.00000000E+00  0.00000000E+00  0.00000000E+00
  0.00000000E+00  0.00000000E+00  0.00000000E+00
  0.00000000E+00  0.00000000E+00  0.00000000E+00
  0.00000000E+00  0.00000000E+00  0.00000000E+00
  0.00000000E+00  0.00000000E+00  0.00000000E+00
  0.00000000E+00  0.00000000E+00  0.00000000E+00
  0.00000000E+00  0.00000000E+00  0.00000000E+00
  0.00000000E+00  0.00000000E+00  0.00000000E+00
  0.00000000E+00  0.00000000E+00  0.00000000E+00
  0.00000000E+00  0.00000000E+00  0.00000000E+00
  0.00000000E+00  0.00000000E+00  0.00000000E+00
  0.00000000E+00  0.00000000E+00  0.00000000E+00
  0.00000000E+00  0.00000000E+00  0.00000000E+00
  0.00000000E+00  0.00000000E+00  0.00000000E+00
  0.00000000E+00  0.00000000E+00  0.00000000E+00
  0.00000000E+00  0.00000000E+00  0.00000000E+00
  0.00000000E+00  0.00000000E+00  0.00000000E+00
  0.00000000E+00  0.00000000E+00  0.00000000E+00
  0.00000000E+00  0.00000000E+00  0.00000000E+00
  0.00000000E+00  0.00000000E+00  0.00000000E+00
  0.00000000E+00  0.00000000E+00  0.00000000E+00
  0.00000000E+00  0.00000000E+00  0.00000000E+00
  0.00000000E+00  0.00000000E+00  0.00000000E+00
