title                                   
    1.000000000000000     
     9.5035489921292857    0.0153117139340963    0.0000000000000000
     0.0155477729069755    9.7019244913190974    0.0000000000000000
     0.0000000000000000    0.0000000000000000    6.3468299068510383
   Cr   Hf   W 
    12    12    12
Direct
  0.1708362502337611  0.1635765351182602  0.2744610495296990
  0.8392490398711443  0.5040217851972715  0.2449373918708938
  0.1708362502337611  0.1635765351182602  0.7255389504703010
  0.8392490398711443  0.5040217851972715  0.7550626081291058
  0.5001656932630619  0.4921257428257427  0.7535974135207399
 -0.0112291175931305  0.3201448734343400  0.5000000000000000
  0.4972059293678259  0.1636835601690982  0.2599000186884702
  0.3415287389908951  0.3124387803977581  0.5000000000000000
  0.5001656932630619  0.4921257428257427  0.2464025864792604
  0.4972059293678259  0.1636835601690982  0.7400999813115299
  0.0122664335881150  0.0117442060118304  0.5000000000000000
  0.6586906578217528  0.0319107476310944  0.5000000000000000
  0.1643528716906148  0.4873267375315767  0.2715627461813331
  0.6579587445039065  0.3397776403186645  0.5000000000000000
  0.5047950056703036  0.8449223534884102  0.2515754331331679
  0.8303181302306653  0.8431255037992932  0.2539653480198488
  0.0115362464786400  0.0145170976021480 -0.0000000000000000
  0.5047950056703036  0.8449223534884102  0.7484245668668322
  0.3470826471028404  0.3187308811677307 -0.0000000000000000
  0.8303181302306653  0.8431255037992932  0.7460346519801508
 -0.0085526120477762  0.3284446240747479 -0.0000000000000000
  0.1643528716906148  0.4873267375315767  0.7284372538186670
  0.3441262971293486  0.6541725327459217 -0.0000000000000000
  0.6656329958644652  0.6396983489239439  0.5000000000000000
  0.1662315254294933  0.8323623674831471  0.7425462333801411
  0.3255484055969998  0.0130800326874960  0.5000000000000000
  0.1662315254294933  0.8323623674831471  0.2574537666198581
  0.6687686845333023  0.6456119225933947 -0.0000000000000000
 -0.0074451455961232  0.6628464222972057  0.5000000000000000
  0.3270727706864404  0.0113223584405629 -0.0000000000000000
 -0.0014903179672968  0.6651252087669832 -0.0000000000000000
  0.8295054291318814  0.1693277188797805  0.7386231023909504
  0.6621822334952953  0.0258580613457019 -0.0000000000000000
  0.6639946002945198  0.3400402174609211 -0.0000000000000000
  0.3370079873402989  0.6635914351143948  0.5000000000000000
  0.8295054291318814  0.1693277188797805  0.2613768976090494
 
  0.00000000E+00  0.00000000E+00  0.00000000E+00
  0.00000000E+00  0.00000000E+00  0.00000000E+00
  0.00000000E+00  0.00000000E+00  0.00000000E+00
  0.00000000E+00  0.00000000E+00  0.00000000E+00
  0.00000000E+00  0.00000000E+00  0.00000000E+00
  0.00000000E+00  0.00000000E+00  0.00000000E+00
  0.00000000E+00  0.00000000E+00  0.00000000E+00
  0.00000000E+00  0.00000000E+00  0.00000000E+00
  0.00000000E+00  0.00000000E+00  0.00000000E+00
  0.00000000E+00  0.00000000E+00  0.00000000E+00
  0.00000000E+00  0.00000000E+00  0.00000000E+00
  0.00000000E+00  0.00000000E+00  0.00000000E+00
  0.00000000E+00  0.00000000E+00  0.00000000E+00
  0.00000000E+00  0.00000000E+00  0.00000000E+00
  0.00000000E+00  0.00000000E+00  0.00000000E+00
  0.00000000E+00  0.00000000E+00  0.00000000E+00
  0.00000000E+00  0.00000000E+00  0.00000000E+00
  0.00000000E+00  0.00000000E+00  0.00000000E+00
  0.00000000E+00  0.00000000E+00  0.00000000E+00
  0.00000000E+00  0.00000000E+00  0.00000000E+00
  0.00000000E+00  0.00000000E+00  0.00000000E+00
  0.00000000E+00  0.00000000E+00  0.00000000E+00
  0.00000000E+00  0.00000000E+00  0.00000000E+00
  0.00000000E+00  0.00000000E+00  0.00000000E+00
  0.00000000E+00  0.00000000E+00  0.00000000E+00
  0.00000000E+00  0.00000000E+00  0.00000000E+00
  0.00000000E+00  0.00000000E+00  0.00000000E+00
  0.00000000E+00  0.00000000E+00  0.00000000E+00
  0.00000000E+00  0.00000000E+00  0.00000000E+00
  0.00000000E+00  0.00000000E+00  0.00000000E+00
  0.00000000E+00  0.00000000E+00  0.00000000E+00
  0.00000000E+00  0.00000000E+00  0.00000000E+00
  0.00000000E+00  0.00000000E+00  0.00000000E+00
  0.00000000E+00  0.00000000E+00  0.00000000E+00
  0.00000000E+00  0.00000000E+00  0.00000000E+00
  0.00000000E+00  0.00000000E+00  0.00000000E+00
