title                                   
    1.000000000000000     
     9.5284734159503941    0.0408276333946858   -0.0540198488763971
     0.0408883122701244    9.5523045082435498   -0.0861422809749489
    -0.0358364572438310   -0.0571994202823296    6.3722589755503378
   Mo   Ti
    18    18
Direct
 -0.0015268911649184 -0.0033124773213794  0.0014783354612389
  0.3303983943353854  0.6662452598481481  0.4987378625204811
  0.8385404351609803  0.8321621313325257  0.2498985935964153
  0.6693560162512098  0.3363062411054519 -0.0012462719183483
 -0.0012343363592185 -0.0014065630009105  0.5049014842510513
  0.3306483673264716  0.3416946462809489  0.0037303592920125
  0.8349609854938556  0.8317525136577685  0.7443916148031233
  0.1703822160024980  0.5023872606535495  0.7558723960337839
  0.6690471823410864  0.3316236202843580  0.4978583028181109
  0.3375987007421810 -0.0063182704069043 -0.0032586794136232
  0.8242843945414221  0.4969323959536553  0.7499240569068362
  0.5009731250059315  0.4941089483326516  0.2484121254269095
  0.6645666131293134  0.6666615373903084  0.4914982404504100
  0.1661303892519758  0.8404783419323691  0.7499104550671971
 -0.0042822788162604  0.6682242902815085  0.5127690435629965
  0.4942358277973302  0.8335521752329742  0.2440489831887768
  0.3297572170386641  0.3362138451947717  0.5031996260495626
  0.3385964766266403 -0.0026862006365797  0.4947318470039273
  0.4925685212222374  0.8250868293863629  0.7280627511753630
  0.4951404916276205  0.1710186742985831  0.7444671253940874
  0.1738735476300090  0.1622048471462798  0.7604612933276461
  0.8261613713621291  0.4981018500645671  0.2601848692906532
  0.5000867734014875  0.4913087233952259  0.7399573328393733
  0.6673163060930435  0.6707522752529410 -0.0025973941225160
  0.4977035564644144  0.1704861632506806  0.2392005828888221
  0.0040943708669265  0.3422580827782009  0.5299946533864882
  0.8357423439024888  0.1725148715578011  0.2472233479456422
  0.1703199300319373  0.5075723244883640  0.2683568050691187
  0.1640282258565675  0.8439973574242855  0.2582633077083878
  0.1756686160746629  0.1643448758377558  0.2563254611930079
  0.3312206971912564  0.6670442738732335 -0.0008648489623749
  0.6693959938638745 -0.0153605221688408  0.0017756415850321
  0.8371556353439716  0.1615284689377512  0.7556561981081557
  0.0030542766658520  0.3456038206110661 -0.0105987432593726
 -0.0069755138796684  0.6688741700499584 -0.0016655733831876
  0.6710120215766401 -0.0119567822994334  0.4789388147148089
 
  0.00000000E+00  0.00000000E+00  0.00000000E+00
  0.00000000E+00  0.00000000E+00  0.00000000E+00
  0.00000000E+00  0.00000000E+00  0.00000000E+00
  0.00000000E+00  0.00000000E+00  0.00000000E+00
  0.00000000E+00  0.00000000E+00  0.00000000E+00
  0.00000000E+00  0.00000000E+00  0.00000000E+00
  0.00000000E+00  0.00000000E+00  0.00000000E+00
  0.00000000E+00  0.00000000E+00  0.00000000E+00
  0.00000000E+00  0.00000000E+00  0.00000000E+00
  0.00000000E+00  0.00000000E+00  0.00000000E+00
  0.00000000E+00  0.00000000E+00  0.00000000E+00
  0.00000000E+00  0.00000000E+00  0.00000000E+00
  0.00000000E+00  0.00000000E+00  0.00000000E+00
  0.00000000E+00  0.00000000E+00  0.00000000E+00
  0.00000000E+00  0.00000000E+00  0.00000000E+00
  0.00000000E+00  0.00000000E+00  0.00000000E+00
  0.00000000E+00  0.00000000E+00  0.00000000E+00
  0.00000000E+00  0.00000000E+00  0.00000000E+00
  0.00000000E+00  0.00000000E+00  0.00000000E+00
  0.00000000E+00  0.00000000E+00  0.00000000E+00
  0.00000000E+00  0.00000000E+00  0.00000000E+00
  0.00000000E+00  0.00000000E+00  0.00000000E+00
  0.00000000E+00  0.00000000E+00  0.00000000E+00
  0.00000000E+00  0.00000000E+00  0.00000000E+00
  0.00000000E+00  0.00000000E+00  0.00000000E+00
  0.00000000E+00  0.00000000E+00  0.00000000E+00
  0.00000000E+00  0.00000000E+00  0.00000000E+00
  0.00000000E+00  0.00000000E+00  0.00000000E+00
  0.00000000E+00  0.00000000E+00  0.00000000E+00
  0.00000000E+00  0.00000000E+00  0.00000000E+00
  0.00000000E+00  0.00000000E+00  0.00000000E+00
  0.00000000E+00  0.00000000E+00  0.00000000E+00
  0.00000000E+00  0.00000000E+00  0.00000000E+00
  0.00000000E+00  0.00000000E+00  0.00000000E+00
  0.00000000E+00  0.00000000E+00  0.00000000E+00
  0.00000000E+00  0.00000000E+00  0.00000000E+00
