title                                   
    1.000000000000000     
     9.9665199079977089   -0.0001468624825303    0.0042118872442141
    -0.0001853804265282    9.9182705717108401   -0.0084653990136365
     0.0028213425372207   -0.0056370997356705    6.5807418711637311
   Hf   Nb   Ta   W    Zr
     3     4    15    11     3
Direct
  0.1652476315590377  0.1683765865842588  0.7552361556347263
  0.6692964371400844  0.6695735235076747  0.4976623579728448
  0.1668589158631012  0.8345478972958792  0.2525542278733444
  0.1665537806291059  0.4964121145872512  0.2484994802207074
 -0.0056380226251782  0.6662677073513416  0.5002988404214709
  0.3407613965198420  0.0010320507960333  0.0068465324280825
  0.1636928284504074  0.4943193576414195  0.7504083912568817
  0.1630390893426277  0.1701739505265190  0.2480402145422480
 -0.0125241202705726 -0.0017990577476724  0.5043053946248149
  0.4988347546768299  0.8432140048302019  0.7555814957760865
  0.1669392756742356  0.8353663345329219  0.7510375981002666
  0.3369890863410702  0.3322417880859589  0.5001588841482641
  0.8349501518056569  0.1673713427135770  0.2490089245514347
  0.4983533424390585  0.1643429953608631  0.7545514959378001
  0.3391127335380275  0.6672074587570000  0.5076128977600596
  0.6678225326965715 -0.0002718897922848  0.4984077037410607
  0.8459220199390145  0.4924455821510118  0.7430601835383912
 -0.0058960449398807  0.6670470432415178 -0.0010559238438083
  0.3359785980190735  0.6667826477212044 -0.0061424396694849
  0.3429812421159555  0.0023348826107650  0.4958257947697663
 -0.0122158482054953 -0.0036560136474989 -0.0020746903283842
  0.6676228497233427  0.3297218804548509  0.5018957916500052
  0.4985622108110215  0.1663053893824185  0.2493155118607887
  0.4904442019076989  0.4939691404182013  0.7477245236173515
 -0.0045873854130528  0.3340969149238751  0.0021209631896077
 -0.0031926496472458  0.3323115741522339  0.4966364710374938
  0.4961096565849493  0.8401780832911327  0.2477677855596262
  0.8346728170379040  0.8382195731930899  0.7506956326102935
  0.6685335536061662  0.0002304271240363  0.0026063055303583
  0.3351219659512357  0.3334916139194244 -0.0002203227354120
  0.8360722721355892  0.1674535360916958  0.7480982124069603
  0.8466484661418165  0.4915410816348235  0.2530640923546555
  0.8357572636234493  0.8395087528750511  0.2487627334531818
  0.6679764612176791  0.3325649008710169 -0.0034000720677634
  0.6711196912203541  0.6705213478569025 -0.0007550849448369
  0.4920788443905186  0.4965554767033049  0.2458639370211158
 
  0.00000000E+00  0.00000000E+00  0.00000000E+00
  0.00000000E+00  0.00000000E+00  0.00000000E+00
  0.00000000E+00  0.00000000E+00  0.00000000E+00
  0.00000000E+00  0.00000000E+00  0.00000000E+00
  0.00000000E+00  0.00000000E+00  0.00000000E+00
  0.00000000E+00  0.00000000E+00  0.00000000E+00
  0.00000000E+00  0.00000000E+00  0.00000000E+00
  0.00000000E+00  0.00000000E+00  0.00000000E+00
  0.00000000E+00  0.00000000E+00  0.00000000E+00
  0.00000000E+00  0.00000000E+00  0.00000000E+00
  0.00000000E+00  0.00000000E+00  0.00000000E+00
  0.00000000E+00  0.00000000E+00  0.00000000E+00
  0.00000000E+00  0.00000000E+00  0.00000000E+00
  0.00000000E+00  0.00000000E+00  0.00000000E+00
  0.00000000E+00  0.00000000E+00  0.00000000E+00
  0.00000000E+00  0.00000000E+00  0.00000000E+00
  0.00000000E+00  0.00000000E+00  0.00000000E+00
  0.00000000E+00  0.00000000E+00  0.00000000E+00
  0.00000000E+00  0.00000000E+00  0.00000000E+00
  0.00000000E+00  0.00000000E+00  0.00000000E+00
  0.00000000E+00  0.00000000E+00  0.00000000E+00
  0.00000000E+00  0.00000000E+00  0.00000000E+00
  0.00000000E+00  0.00000000E+00  0.00000000E+00
  0.00000000E+00  0.00000000E+00  0.00000000E+00
  0.00000000E+00  0.00000000E+00  0.00000000E+00
  0.00000000E+00  0.00000000E+00  0.00000000E+00
  0.00000000E+00  0.00000000E+00  0.00000000E+00
  0.00000000E+00  0.00000000E+00  0.00000000E+00
  0.00000000E+00  0.00000000E+00  0.00000000E+00
  0.00000000E+00  0.00000000E+00  0.00000000E+00
  0.00000000E+00  0.00000000E+00  0.00000000E+00
  0.00000000E+00  0.00000000E+00  0.00000000E+00
  0.00000000E+00  0.00000000E+00  0.00000000E+00
  0.00000000E+00  0.00000000E+00  0.00000000E+00
  0.00000000E+00  0.00000000E+00  0.00000000E+00
  0.00000000E+00  0.00000000E+00  0.00000000E+00
