title                                   
    1.000000000000000     
     9.6058311332158208   -0.1084712059542791    0.0028526158346160
    -0.1076125829295154    9.6862509108247909    0.0130050035142868
     0.0019966208393959    0.0089780084301592    6.4360604788079003
   Cr   Ti   W    Zr
     9     9     9     9
Direct
  0.8452150279014399  0.1612037068505517  0.7406676874405933
  0.4924253686389113  0.8202822085214619  0.7284970899013483
 -0.0190217745022038  0.0055492765011013  0.5192317184559764
  0.6631372446433083  0.3207377501446103  0.0152964600744959
  0.1580018105598207  0.8435936726020187  0.7447960715802644
  0.3466992090842496  0.6792297236520377  0.5060894910360152
  0.4939523869047508  0.8224514832123937  0.2713113917113821
 -0.0087164624399964 -0.0093155152251264 -0.0207044714506832
  0.5172992140865901  0.1882194096103717  0.2340710972270839
  0.8273638672109973  0.4979748971013214  0.7513656575728971
  0.0113819889798823  0.6735477086022251 -0.0172437546258155
 -0.0085715579768512  0.3229288313045731  0.5248678411054377
  0.1519012904478041  0.1421144646651778  0.7572053380465061
  0.8366188053604461  0.1710128164097174  0.2254995499277683
  0.1636472539305935  0.5136361252532963  0.2670863810854441
  0.3333775163652888  0.3432137880268942  0.0249930709140385
  0.8424141435707897  0.8322306813234767  0.7422368363287700
  0.3434165561007062 -0.0141496499652983 -0.0006530514643370
  0.3376903562236583 -0.0165045468259205  0.5223285515145750
  0.6729491071343764  0.3250371049612009  0.4862474993449252
  0.8393601685155381  0.8340293456023632  0.2487269457266446
  0.5120262653397827  0.5073239669760335  0.2541477660406887
  0.1599768222425515  0.5051226075806509  0.7472660431827070
  0.6673947926877928  0.6770568307947714  0.0078860551196293
  0.0039342313891785  0.6714802002090863  0.5184032597167034
  0.6637656831817773  0.6771725643969625  0.4941170121283588
  0.0024814929766699  0.3308789354792843 -0.0270886166398657
  0.3362081882567299  0.6782901764735734 -0.0032442645659298
  0.3302938485154131  0.3372199792029955  0.4866074327644995
  0.8375841309304233  0.4969158931735381  0.2414993591954481
  0.6618418993557020 -0.0064421702247671 -0.0054886362853381
  0.1605141363283311  0.8422893945017963  0.2656652473997655
  0.5126651615220665  0.4995301197515383  0.7550322738170627
  0.1532319871312613  0.1512180232923126  0.2485576524935434
  0.4980258892508000  0.1749698997558576  0.7595483041349398
  0.6595139501514198 -0.0000497036920800  0.4851737100444566
 
  0.00000000E+00  0.00000000E+00  0.00000000E+00
  0.00000000E+00  0.00000000E+00  0.00000000E+00
  0.00000000E+00  0.00000000E+00  0.00000000E+00
  0.00000000E+00  0.00000000E+00  0.00000000E+00
  0.00000000E+00  0.00000000E+00  0.00000000E+00
  0.00000000E+00  0.00000000E+00  0.00000000E+00
  0.00000000E+00  0.00000000E+00  0.00000000E+00
  0.00000000E+00  0.00000000E+00  0.00000000E+00
  0.00000000E+00  0.00000000E+00  0.00000000E+00
  0.00000000E+00  0.00000000E+00  0.00000000E+00
  0.00000000E+00  0.00000000E+00  0.00000000E+00
  0.00000000E+00  0.00000000E+00  0.00000000E+00
  0.00000000E+00  0.00000000E+00  0.00000000E+00
  0.00000000E+00  0.00000000E+00  0.00000000E+00
  0.00000000E+00  0.00000000E+00  0.00000000E+00
  0.00000000E+00  0.00000000E+00  0.00000000E+00
  0.00000000E+00  0.00000000E+00  0.00000000E+00
  0.00000000E+00  0.00000000E+00  0.00000000E+00
  0.00000000E+00  0.00000000E+00  0.00000000E+00
  0.00000000E+00  0.00000000E+00  0.00000000E+00
  0.00000000E+00  0.00000000E+00  0.00000000E+00
  0.00000000E+00  0.00000000E+00  0.00000000E+00
  0.00000000E+00  0.00000000E+00  0.00000000E+00
  0.00000000E+00  0.00000000E+00  0.00000000E+00
  0.00000000E+00  0.00000000E+00  0.00000000E+00
  0.00000000E+00  0.00000000E+00  0.00000000E+00
  0.00000000E+00  0.00000000E+00  0.00000000E+00
  0.00000000E+00  0.00000000E+00  0.00000000E+00
  0.00000000E+00  0.00000000E+00  0.00000000E+00
  0.00000000E+00  0.00000000E+00  0.00000000E+00
  0.00000000E+00  0.00000000E+00  0.00000000E+00
  0.00000000E+00  0.00000000E+00  0.00000000E+00
  0.00000000E+00  0.00000000E+00  0.00000000E+00
  0.00000000E+00  0.00000000E+00  0.00000000E+00
  0.00000000E+00  0.00000000E+00  0.00000000E+00
  0.00000000E+00  0.00000000E+00  0.00000000E+00
