title                                   
    1.000000000000000     
     9.3486865086809701    0.0093979554506664   -0.0090163846507341
     0.0093755309021741    9.3339829753283858    0.0061847892036496
    -0.0059960979581405    0.0041071542060894    6.2239740495918134
   Cr   Mo   Ta   V    W 
     7     8     7     7     7
Direct
  0.0010327834790242 -0.0056802649756233 -0.0002620006259514
  0.8361181228798509  0.8308974920299278  0.2473977638058517
  0.3298652752224737  0.6678025401951627 -0.0029938548758979
  0.4988781219343432  0.5011589559965595  0.7528456474885972
  0.6729814962026434  0.6654645422061594 -0.0007625127192898
  0.6669191800564788 -0.0024254645327626  0.5016577817520870
  0.8355503907464169  0.5033242281810668  0.2464092045492847
  0.3343040725057815  0.3319951868268732  0.5019104234565421
  0.4982998171891440  0.8312120112295800  0.7520430669958237
  0.8364390652548072  0.1636870286954794  0.2509778368395351
  0.4982236115688600  0.1643874520230752  0.2566023974501772
  0.3310980060091241  0.6692148899656173  0.5054864554628761
  0.0009016556314588 -0.0051946349853687  0.4937045960534697
  0.1646944330442596  0.8321316036634958  0.2425841563768635
  0.3314146682827916 -0.0020985084761682 -0.0064639382135851
  0.6691633107645927 -0.0026502792860287  0.0036565231844953
  0.1660882799697232  0.5053507734920017  0.7568099257991237
  0.6738322363030443  0.6644088681325209  0.5050334583584619
  0.6675678952432282  0.3376450776837733 -0.0020538450772897
  0.4956806396753805  0.5066378349608825  0.2455224726617706
  0.8374280015001785  0.1632389795798559  0.7465087664124148
  0.4984832289802589  0.8312465946746211  0.2509609928208937
  0.4984520866495380  0.1645527762449430  0.7431097551116039
  0.1660080495431466  0.8331010904171262  0.7538243855018829
  0.1657640715441173  0.5015111736564501  0.2464212244191966
  0.8362681175145370  0.5029027028011747  0.7573350255349933
  0.3310292096138607  0.0010788862360017  0.5013202193139376
 -0.0045561514458254  0.6684451229667109  0.0088067252485687
 -0.0016550238332651  0.3376777143252738  0.0057503645879512
  0.6669829657538986  0.3376751446130694  0.5024792859525335
  0.1640509917799640  0.1658550186247932  0.2461528315645550
  0.3344192132738576  0.3332062416496642 -0.0031670908476898
  0.1657098920123498  0.1643474812244456  0.7490485416106581
 -0.0018967462264745  0.3387146973240019  0.4920314422833501
 -0.0037870547935687  0.6672049837564693  0.4928753150389955
  0.8382460861700010  0.8319720588791744  0.7564366567232094
 
  0.00000000E+00  0.00000000E+00  0.00000000E+00
  0.00000000E+00  0.00000000E+00  0.00000000E+00
  0.00000000E+00  0.00000000E+00  0.00000000E+00
  0.00000000E+00  0.00000000E+00  0.00000000E+00
  0.00000000E+00  0.00000000E+00  0.00000000E+00
  0.00000000E+00  0.00000000E+00  0.00000000E+00
  0.00000000E+00  0.00000000E+00  0.00000000E+00
  0.00000000E+00  0.00000000E+00  0.00000000E+00
  0.00000000E+00  0.00000000E+00  0.00000000E+00
  0.00000000E+00  0.00000000E+00  0.00000000E+00
  0.00000000E+00  0.00000000E+00  0.00000000E+00
  0.00000000E+00  0.00000000E+00  0.00000000E+00
  0.00000000E+00  0.00000000E+00  0.00000000E+00
  0.00000000E+00  0.00000000E+00  0.00000000E+00
  0.00000000E+00  0.00000000E+00  0.00000000E+00
  0.00000000E+00  0.00000000E+00  0.00000000E+00
  0.00000000E+00  0.00000000E+00  0.00000000E+00
  0.00000000E+00  0.00000000E+00  0.00000000E+00
  0.00000000E+00  0.00000000E+00  0.00000000E+00
  0.00000000E+00  0.00000000E+00  0.00000000E+00
  0.00000000E+00  0.00000000E+00  0.00000000E+00
  0.00000000E+00  0.00000000E+00  0.00000000E+00
  0.00000000E+00  0.00000000E+00  0.00000000E+00
  0.00000000E+00  0.00000000E+00  0.00000000E+00
  0.00000000E+00  0.00000000E+00  0.00000000E+00
  0.00000000E+00  0.00000000E+00  0.00000000E+00
  0.00000000E+00  0.00000000E+00  0.00000000E+00
  0.00000000E+00  0.00000000E+00  0.00000000E+00
  0.00000000E+00  0.00000000E+00  0.00000000E+00
  0.00000000E+00  0.00000000E+00  0.00000000E+00
  0.00000000E+00  0.00000000E+00  0.00000000E+00
  0.00000000E+00  0.00000000E+00  0.00000000E+00
  0.00000000E+00  0.00000000E+00  0.00000000E+00
  0.00000000E+00  0.00000000E+00  0.00000000E+00
  0.00000000E+00  0.00000000E+00  0.00000000E+00
  0.00000000E+00  0.00000000E+00  0.00000000E+00
