title                                   
    1.000000000000000     
     9.6293789310864568    0.0238193319322150   -0.0008830872437767
     0.0238518738371273    9.6551290768195130    0.0061321659759413
    -0.0005940095444641    0.0040785679562387    6.4070083950146914
   Mo   Nb   Ti   W 
     9     9     9     9
Direct
  0.1660223516835674  0.8299500995372249  0.7488207907826353
  0.0033773439242840  0.6716503845012671 -0.0015770381328075
  0.8371149931674990  0.1709018926825050  0.7519764455127562
  0.3319965120903053  0.3353125415407097  0.4998223299025498
  0.6721746436203860  0.0012877246410325 -0.0015759523278893
  0.5009527400349909  0.5000745442629521  0.7508140335688507
  0.1670021430086337  0.4959411426477107  0.7497988835863185
  0.1667151799768682  0.8305257900294111  0.2488171645320301
  0.1679113659994194  0.4988877722573712  0.2513889790827842
  0.8375261730450975  0.4988468821145564  0.2495400819785899
  0.6699933681768391  0.3307405539206730  0.5057982743615058
  0.3295208257978984  0.6646677519486337 -0.0012059563392190
  0.8284514400121491  0.8322821358941656  0.2470770072485480
  0.4988740890652013  0.4972672352835785  0.2541268877313441
  0.4963808889644639  0.1661099831724327  0.7532811348772318
  0.6663524117123245  0.6637495310926346 -0.0025851456890437
  0.6742301904699070  0.0017965421048414  0.5016900974570974
  0.3214295902940974 -0.0030339419174051  0.0015730786851260
  0.5027714447914005  0.8328147655825949  0.2536241008637045
 -0.0005689887014717  0.0011908682127238 -0.0020464956628829
  0.3172160568016096 -0.0059064807639730  0.4954299768335789
  0.8394012431269332  0.5011408689769996  0.7543133061206199
  0.0069048087454092  0.6716016105764284  0.5015671631679227
  0.4975097852627399  0.1649366652957636  0.2464801783325863
  0.1669489407908026  0.1766339400560999  0.7457063912088154
  0.5020135243937893  0.8323907910475590  0.7463498376887210
  0.0034928502577521 -0.0021347573213256  0.4976049422409051
  0.3309438113020988  0.3367382113184952 -0.0000133234463072
  0.6677222737078452  0.3301251504911759 -0.0002872813779109
  0.1657609289989948  0.1746370496247059  0.2483838985304130
  0.0015629410989951  0.3320044457481896  0.0009313344173428
  0.8334319070125540  0.1686704390316775  0.2464811354330790
  0.0024777403411363  0.3337341779784557  0.4983840564670453
  0.8298488492188985  0.8298182022865997  0.7520774123511212
  0.3276007569123550  0.6684554064756961  0.5015411428097984
  0.6689348748942266  0.6661900796678389  0.5058911272030376
 
  0.00000000E+00  0.00000000E+00  0.00000000E+00
  0.00000000E+00  0.00000000E+00  0.00000000E+00
  0.00000000E+00  0.00000000E+00  0.00000000E+00
  0.00000000E+00  0.00000000E+00  0.00000000E+00
  0.00000000E+00  0.00000000E+00  0.00000000E+00
  0.00000000E+00  0.00000000E+00  0.00000000E+00
  0.00000000E+00  0.00000000E+00  0.00000000E+00
  0.00000000E+00  0.00000000E+00  0.00000000E+00
  0.00000000E+00  0.00000000E+00  0.00000000E+00
  0.00000000E+00  0.00000000E+00  0.00000000E+00
  0.00000000E+00  0.00000000E+00  0.00000000E+00
  0.00000000E+00  0.00000000E+00  0.00000000E+00
  0.00000000E+00  0.00000000E+00  0.00000000E+00
  0.00000000E+00  0.00000000E+00  0.00000000E+00
  0.00000000E+00  0.00000000E+00  0.00000000E+00
  0.00000000E+00  0.00000000E+00  0.00000000E+00
  0.00000000E+00  0.00000000E+00  0.00000000E+00
  0.00000000E+00  0.00000000E+00  0.00000000E+00
  0.00000000E+00  0.00000000E+00  0.00000000E+00
  0.00000000E+00  0.00000000E+00  0.00000000E+00
  0.00000000E+00  0.00000000E+00  0.00000000E+00
  0.00000000E+00  0.00000000E+00  0.00000000E+00
  0.00000000E+00  0.00000000E+00  0.00000000E+00
  0.00000000E+00  0.00000000E+00  0.00000000E+00
  0.00000000E+00  0.00000000E+00  0.00000000E+00
  0.00000000E+00  0.00000000E+00  0.00000000E+00
  0.00000000E+00  0.00000000E+00  0.00000000E+00
  0.00000000E+00  0.00000000E+00  0.00000000E+00
  0.00000000E+00  0.00000000E+00  0.00000000E+00
  0.00000000E+00  0.00000000E+00  0.00000000E+00
  0.00000000E+00  0.00000000E+00  0.00000000E+00
  0.00000000E+00  0.00000000E+00  0.00000000E+00
  0.00000000E+00  0.00000000E+00  0.00000000E+00
  0.00000000E+00  0.00000000E+00  0.00000000E+00
  0.00000000E+00  0.00000000E+00  0.00000000E+00
  0.00000000E+00  0.00000000E+00  0.00000000E+00
