title                                   
    1.000000000000000     
    10.0062409249157813   -0.0421789479249200   -0.0627785713930492
    -0.0435507088418575    9.8730544665990916   -0.0474941011906480
    -0.0433119281738285   -0.0318238089717506    6.6322688845392088
   Nb   V    Zr
    12    12    12
Direct
  0.6668495181702331 -0.0137136721864054 -0.0115434384763517
  0.5024802586198950  0.8309878566012465  0.7442262601344298
  0.8236625367608513  0.5023786358478598  0.7463991045635301
  0.8266206125136872  0.5031914863109724  0.2478021821133648
  0.5025919887556525  0.5419046677056628  0.2647882640696300
 -0.0057639979609819  0.6769933414144544  0.5325052035610331
  0.6729116969263712  0.3404364657075796 -0.0029058169932801
 -0.0140604092453889  0.3415819385042121  0.5172019208738180
  0.4961493708711152  0.5103156814812435  0.7539419996780518
  0.3381618768684401  0.6762703149983865 -0.0007810139660193
  0.1710459887245420  0.4998246468455432  0.7533629854184416
  0.8305581327507049  0.1589621248360084  0.7358135190957802
 -0.0095973909495938 -0.0125182815894856  0.5311542766509090
  0.2030302959032636  0.8222157068024415  0.7399447489528702
  0.5110431203194490  0.8339949871186609  0.2395469495866311
  0.3362296061056711  0.6736977912928572  0.5252410154901112
  0.6609201322877080  0.6703641975971237  0.5147066094059149
 -0.0217921043740696  0.3466248037368971 -0.0186355495245777
  0.7984576692415576  0.8279767086363619  0.7260025568318563
  0.3386643322785443  0.3579814454419800  0.5113841649415851
  0.5264077235186678  0.1301734864969715  0.2150202569762751
  0.3493372778204758 -0.0113082967394733  0.0139680343730337
  0.6604933389255077  0.6667386927830878 -0.0170283480114764
  0.6577256902281291 -0.0080909131543269  0.4862129925331392
  0.3584746330185087  0.3327496521269845  0.0547939882623365
  0.1679058680543967  0.8346464715746618  0.2687322584332851
  0.6482667787015196  0.3306415005196065  0.4781705379720815
 -0.0033984198976861  0.6626405583682159 -0.0143342201737260
  0.8404555470147721  0.1591958819688951  0.2418106461998192
  0.1669944490953633  0.1738908335703990  0.7538569824462802
  0.1535455539976650  0.1657377241556477  0.2523435874310861
  0.3559063528977383  0.0103022840912919  0.4733614835452479
  0.4994398761867308  0.1663977027800191  0.7634115617731381
  0.0029215721557473 -0.0320818796065541 -0.0538994590066522
  0.1635168309164590  0.5029631622068053  0.2706746752303827
  0.8238436927983518  0.8259322917541682  0.2627490796080203
 
  0.00000000E+00  0.00000000E+00  0.00000000E+00
  0.00000000E+00  0.00000000E+00  0.00000000E+00
  0.00000000E+00  0.00000000E+00  0.00000000E+00
  0.00000000E+00  0.00000000E+00  0.00000000E+00
  0.00000000E+00  0.00000000E+00  0.00000000E+00
  0.00000000E+00  0.00000000E+00  0.00000000E+00
  0.00000000E+00  0.00000000E+00  0.00000000E+00
  0.00000000E+00  0.00000000E+00  0.00000000E+00
  0.00000000E+00  0.00000000E+00  0.00000000E+00
  0.00000000E+00  0.00000000E+00  0.00000000E+00
  0.00000000E+00  0.00000000E+00  0.00000000E+00
  0.00000000E+00  0.00000000E+00  0.00000000E+00
  0.00000000E+00  0.00000000E+00  0.00000000E+00
  0.00000000E+00  0.00000000E+00  0.00000000E+00
  0.00000000E+00  0.00000000E+00  0.00000000E+00
  0.00000000E+00  0.00000000E+00  0.00000000E+00
  0.00000000E+00  0.00000000E+00  0.00000000E+00
  0.00000000E+00  0.00000000E+00  0.00000000E+00
  0.00000000E+00  0.00000000E+00  0.00000000E+00
  0.00000000E+00  0.00000000E+00  0.00000000E+00
  0.00000000E+00  0.00000000E+00  0.00000000E+00
  0.00000000E+00  0.00000000E+00  0.00000000E+00
  0.00000000E+00  0.00000000E+00  0.00000000E+00
  0.00000000E+00  0.00000000E+00  0.00000000E+00
  0.00000000E+00  0.00000000E+00  0.00000000E+00
  0.00000000E+00  0.00000000E+00  0.00000000E+00
  0.00000000E+00  0.00000000E+00  0.00000000E+00
  0.00000000E+00  0.00000000E+00  0.00000000E+00
  0.00000000E+00  0.00000000E+00  0.00000000E+00
  0.00000000E+00  0.00000000E+00  0.00000000E+00
  0.00000000E+00  0.00000000E+00  0.00000000E+00
  0.00000000E+00  0.00000000E+00  0.00000000E+00
  0.00000000E+00  0.00000000E+00  0.00000000E+00
  0.00000000E+00  0.00000000E+00  0.00000000E+00
  0.00000000E+00  0.00000000E+00  0.00000000E+00
  0.00000000E+00  0.00000000E+00  0.00000000E+00
