title                                   
    1.000000000000000     
     9.9732701194269389    0.0423954492075954   -0.0384003090146154
     0.0427115124545636   10.0052684249090866    0.0884873257623315
    -0.0256245071250530    0.0589749650949779    6.6537702893665092
   Hf   Mo   Ta   V    Zr
     7     7     8     7     7
Direct
  0.6618276544362512  0.0029842898220268  0.5006799174957791
  0.0005614764827694 -0.0086522114535364 -0.0124652118558773
  0.1725979552014729  0.1844838957047325  0.7676605847422722
  0.3428820636000427  0.3371350777474462  0.4811808945591246
  0.3240361350821226  0.6644719852506356  0.0152111651813616
  0.0001668210285855  0.0045145631339418  0.5112933091755527
  0.8302501799005089  0.8213219660549965  0.2443902506716419
  0.5053612096407692  0.1680544639890016  0.7549167657884015
 -0.0141425153260923  0.3335971076068007  0.0005192819578529
  0.1700641935979649  0.8229931865001132  0.7450987175650658
  0.0101803862368815  0.6654239022567991  0.4960278618225706
  0.3339278493006597  0.6697111016065110  0.4969343144811619
  0.6461849615878967  0.6758049116997520  0.0111296487292092
  0.8289644536460249  0.1722519192576519  0.7546562730029781
  0.8287540033786890  0.1735478380692704  0.2301492623903536
  0.6666067098381596  0.3198205089503250  0.5032216444368796
 -0.0174264733177858  0.3232853454442654  0.5003263714041436
  0.5134802486786619  0.5038825206729568  0.2448730005453403
  0.5038842842037603  0.8239622184838197  0.7433755189200413
  0.3418953991579302 -0.0010053600240016  0.5062600179845547
  0.5086936362986181  0.1720199638079663  0.2315954834386033
  0.1649680799623925  0.8208017462491469  0.2747720534752303
  0.0304602147936654  0.6723243596326406  0.0130477175054489
  0.3599285066926913  0.3368142119273471  0.0130420041081208
  0.6706385944520977  0.0206669229094844 -0.0269023743888924
  0.6458955084955387  0.6852502162785089  0.4859528977179049
  0.1472405297655824  0.5126565822048422  0.2662420668920049
  0.6599763513196737  0.3141501316954404 -0.0161288561031275
  0.5017190692983794  0.8165356355975200  0.2695400383498427
  0.3440114221045016 -0.0112367181025198  0.0025218628845320
  0.1651533449789559  0.1821592051287360  0.2308088864116884
  0.5057489670440120  0.5061829889764090  0.7524186202025713
  0.8305861215020471  0.5028783696969309  0.7534509620977995
  0.8310745913194478  0.5043869800383239  0.2401766816740561
  0.1573950689039761  0.4951987258941473  0.7553635831528984
  0.8264529967131491  0.8116214472915659  0.7586587835829122
 
  0.00000000E+00  0.00000000E+00  0.00000000E+00
  0.00000000E+00  0.00000000E+00  0.00000000E+00
  0.00000000E+00  0.00000000E+00  0.00000000E+00
  0.00000000E+00  0.00000000E+00  0.00000000E+00
  0.00000000E+00  0.00000000E+00  0.00000000E+00
  0.00000000E+00  0.00000000E+00  0.00000000E+00
  0.00000000E+00  0.00000000E+00  0.00000000E+00
  0.00000000E+00  0.00000000E+00  0.00000000E+00
  0.00000000E+00  0.00000000E+00  0.00000000E+00
  0.00000000E+00  0.00000000E+00  0.00000000E+00
  0.00000000E+00  0.00000000E+00  0.00000000E+00
  0.00000000E+00  0.00000000E+00  0.00000000E+00
  0.00000000E+00  0.00000000E+00  0.00000000E+00
  0.00000000E+00  0.00000000E+00  0.00000000E+00
  0.00000000E+00  0.00000000E+00  0.00000000E+00
  0.00000000E+00  0.00000000E+00  0.00000000E+00
  0.00000000E+00  0.00000000E+00  0.00000000E+00
  0.00000000E+00  0.00000000E+00  0.00000000E+00
  0.00000000E+00  0.00000000E+00  0.00000000E+00
  0.00000000E+00  0.00000000E+00  0.00000000E+00
  0.00000000E+00  0.00000000E+00  0.00000000E+00
  0.00000000E+00  0.00000000E+00  0.00000000E+00
  0.00000000E+00  0.00000000E+00  0.00000000E+00
  0.00000000E+00  0.00000000E+00  0.00000000E+00
  0.00000000E+00  0.00000000E+00  0.00000000E+00
  0.00000000E+00  0.00000000E+00  0.00000000E+00
  0.00000000E+00  0.00000000E+00  0.00000000E+00
  0.00000000E+00  0.00000000E+00  0.00000000E+00
  0.00000000E+00  0.00000000E+00  0.00000000E+00
  0.00000000E+00  0.00000000E+00  0.00000000E+00
  0.00000000E+00  0.00000000E+00  0.00000000E+00
  0.00000000E+00  0.00000000E+00  0.00000000E+00
  0.00000000E+00  0.00000000E+00  0.00000000E+00
  0.00000000E+00  0.00000000E+00  0.00000000E+00
  0.00000000E+00  0.00000000E+00  0.00000000E+00
  0.00000000E+00  0.00000000E+00  0.00000000E+00
