title                                   
    1.000000000000000     
     9.4864902614558293    0.1394938656117866    0.1303025057721496
     0.1409245897962817    9.6748222028581825    0.1518081375708902
     0.0862017874022224    0.1001433107212653    6.6263946471361397
   Cr   Hf   Ti
    12    12    12
Direct
  0.1591629722755845  0.8384486005202840  0.7546244207225297
  0.4764854208496235  0.8540174714037400  0.7219523574514323
  0.1351504118026441  0.5450097061121477  0.2295494518956225
 -0.0070296835827938  0.6651957924599382  0.0104502401894378
  0.5058784801252164  0.1429436772075874  0.7721568854537214
  0.3364088650531038 -0.0196983869378747  0.5261474127274134
  0.6640585170224912  0.0022029268993718 -0.0388855904143467
  0.3480004104134268 -0.0119781469070948 -0.0327121356463303
  0.6925180420081836  0.3243977659571728  0.0207568712355126
  0.8384942342196907  0.5250158406426456  0.2384199646300884
 -0.0015595643102280 -0.0226143540395722 -0.0312271824182351
  0.8392200098024135  0.8468351594565007  0.7670419589658244
  0.5209790652063373  0.4582860038973602  0.7751237593993349
  0.3220699109471859  0.6659935993320167  0.4928502231912144
  0.8272577035136095  0.8426608951963270  0.2252642897874881
  0.6966687628913761  0.3291564045933122  0.4758778229021386
 -0.0046266438289330 -0.0087737239881187  0.5214564276281494
  0.3087838571273728  0.3517311596790009  0.0477270404812954
  0.0141960550482385  0.3458003664481312  0.4852568397458550
  0.1732487921880334  0.1519262694946530  0.7874952362613460
  0.3306313319090148  0.6755827694792084 -0.0178112225597463
  0.6613051400481771  0.6923589207687935 -0.0458978318925588
  0.5114332377572228  0.1558190240289538  0.2245370231985950
  0.3371789128621190  0.3303749993767337  0.5016470935947800
 -0.0099872745878908  0.6739500918606612  0.5071455184462459
  0.6688155014327859  0.6635128426895459  0.5006386823598228
  0.8339288147333167  0.1436803290774337  0.2116442497678196
 -0.0057988047075700  0.3446041015848171  0.0486919553194106
  0.8286921788776277  0.1675412195948292  0.7882044239606598
  0.1581950831877406  0.8430503978826436  0.2225849134036388
  0.5356500802306631  0.4988887782162850  0.2237670717564984
  0.1877558828444819  0.1299534587815912  0.2481302761201666
  0.1353386553416877  0.5113325642843902  0.7825341666027282
  0.6564543632898139 -0.0071706820364286  0.5350195974675022
  0.4855180563196860  0.8569501304566203  0.2406648192204325
  0.8395232216885460  0.4930140265263934  0.7791729690445116
 
  0.00000000E+00  0.00000000E+00  0.00000000E+00
  0.00000000E+00  0.00000000E+00  0.00000000E+00
  0.00000000E+00  0.00000000E+00  0.00000000E+00
  0.00000000E+00  0.00000000E+00  0.00000000E+00
  0.00000000E+00  0.00000000E+00  0.00000000E+00
  0.00000000E+00  0.00000000E+00  0.00000000E+00
  0.00000000E+00  0.00000000E+00  0.00000000E+00
  0.00000000E+00  0.00000000E+00  0.00000000E+00
  0.00000000E+00  0.00000000E+00  0.00000000E+00
  0.00000000E+00  0.00000000E+00  0.00000000E+00
  0.00000000E+00  0.00000000E+00  0.00000000E+00
  0.00000000E+00  0.00000000E+00  0.00000000E+00
  0.00000000E+00  0.00000000E+00  0.00000000E+00
  0.00000000E+00  0.00000000E+00  0.00000000E+00
  0.00000000E+00  0.00000000E+00  0.00000000E+00
  0.00000000E+00  0.00000000E+00  0.00000000E+00
  0.00000000E+00  0.00000000E+00  0.00000000E+00
  0.00000000E+00  0.00000000E+00  0.00000000E+00
  0.00000000E+00  0.00000000E+00  0.00000000E+00
  0.00000000E+00  0.00000000E+00  0.00000000E+00
  0.00000000E+00  0.00000000E+00  0.00000000E+00
  0.00000000E+00  0.00000000E+00  0.00000000E+00
  0.00000000E+00  0.00000000E+00  0.00000000E+00
  0.00000000E+00  0.00000000E+00  0.00000000E+00
  0.00000000E+00  0.00000000E+00  0.00000000E+00
  0.00000000E+00  0.00000000E+00  0.00000000E+00
  0.00000000E+00  0.00000000E+00  0.00000000E+00
  0.00000000E+00  0.00000000E+00  0.00000000E+00
  0.00000000E+00  0.00000000E+00  0.00000000E+00
  0.00000000E+00  0.00000000E+00  0.00000000E+00
  0.00000000E+00  0.00000000E+00  0.00000000E+00
  0.00000000E+00  0.00000000E+00  0.00000000E+00
  0.00000000E+00  0.00000000E+00  0.00000000E+00
  0.00000000E+00  0.00000000E+00  0.00000000E+00
  0.00000000E+00  0.00000000E+00  0.00000000E+00
  0.00000000E+00  0.00000000E+00  0.00000000E+00
