title                                   
    1.000000000000000     
     8.9632427837467237   -0.0083467777903716   -0.0296640898300122
    -0.0083449049815967    8.9452132854464779    0.0014267205167302
    -0.0197988654582092    0.0009635207678132    5.9628407754126043
   Cr   Hf   Mo   V 
    19     3     4    10
Direct
 -0.0016617487293453  0.6708517290318403  0.0037444101467663
  0.3279235267920957  0.6632717893737802  0.4927602945297588
 -0.0017031247257660  0.6706152778999476  0.4965808708645612
  0.5074759501402397  0.1732143020697701  0.7455457692977054
  0.6679992745846169  0.0011669883729738  0.0060462890545923
  0.6623144154381866  0.3312873824501174 -0.0060084203100305
  0.0010877568599047 -0.0015243664763416  0.5026306411367375
  0.1590534568189163  0.8333628732168296  0.7429952637881669
  0.5030797242764555  0.4909745794738906  0.7508367057382979
  0.8281071869847294  0.5019886631220379  0.7434390764377696
  0.8381885394858148  0.8322772729158756  0.2485838370479045
  0.8305786949043485  0.5059968534894582  0.2547035341020465
 -0.0012636639663219 -0.0030488172345955  0.0010045569068022
  0.1636605069670440  0.1663986762745976  0.7392389613968244
  0.6625797256218880  0.3310620406079390  0.5043736345494777
  0.3391957667425605  0.3337506741316336 -0.0015453525861926
  0.5092223682331063  0.8326977440565504  0.2497817344266268
  0.6680893699301136  0.0020708361144295  0.4907965038864114
  0.5050761288372942  0.1709998753214628  0.2561112077715010
 -0.0025575077975829  0.3366229765838804 -0.0014149200084737
  0.5045366116762979  0.8256490333914254  0.7387073112585668
  0.3304157295598640  0.0070530849870460  0.0032212623938392
  0.8256721206018216  0.1595774469509230  0.2545595962959661
  0.5007618566908005  0.4955382935160754  0.2497185945510732
  0.1722365810128723  0.5084878773676581  0.7461696986667580
  0.8388582004234494  0.8343907314399972  0.7490056851840992
  0.3296273014370242  0.0076173553535681  0.4975064651172028
  0.8243271751636215  0.1596851384962346  0.7459892148196199
  0.1635841159194782  0.1673960211585553  0.2660313501040470
  0.3375473832262355  0.3303825180842564  0.5055419813249306
  0.6774292083137399  0.6564913525482998  0.4890797301385831
  0.6755387675807578  0.6571023926925625  0.0064493802326007
  0.1557890047209873  0.8311328191224634  0.2577901684664024
  0.3308269396264827  0.6660997197674018  0.0060885475237206
 -0.0039620599193886  0.3375723626293801  0.5067140751835705
  0.1703647165676584  0.5117865016980742  0.2572223405617655
 
  0.00000000E+00  0.00000000E+00  0.00000000E+00
  0.00000000E+00  0.00000000E+00  0.00000000E+00
  0.00000000E+00  0.00000000E+00  0.00000000E+00
  0.00000000E+00  0.00000000E+00  0.00000000E+00
  0.00000000E+00  0.00000000E+00  0.00000000E+00
  0.00000000E+00  0.00000000E+00  0.00000000E+00
  0.00000000E+00  0.00000000E+00  0.00000000E+00
  0.00000000E+00  0.00000000E+00  0.00000000E+00
  0.00000000E+00  0.00000000E+00  0.00000000E+00
  0.00000000E+00  0.00000000E+00  0.00000000E+00
  0.00000000E+00  0.00000000E+00  0.00000000E+00
  0.00000000E+00  0.00000000E+00  0.00000000E+00
  0.00000000E+00  0.00000000E+00  0.00000000E+00
  0.00000000E+00  0.00000000E+00  0.00000000E+00
  0.00000000E+00  0.00000000E+00  0.00000000E+00
  0.00000000E+00  0.00000000E+00  0.00000000E+00
  0.00000000E+00  0.00000000E+00  0.00000000E+00
  0.00000000E+00  0.00000000E+00  0.00000000E+00
  0.00000000E+00  0.00000000E+00  0.00000000E+00
  0.00000000E+00  0.00000000E+00  0.00000000E+00
  0.00000000E+00  0.00000000E+00  0.00000000E+00
  0.00000000E+00  0.00000000E+00  0.00000000E+00
  0.00000000E+00  0.00000000E+00  0.00000000E+00
  0.00000000E+00  0.00000000E+00  0.00000000E+00
  0.00000000E+00  0.00000000E+00  0.00000000E+00
  0.00000000E+00  0.00000000E+00  0.00000000E+00
  0.00000000E+00  0.00000000E+00  0.00000000E+00
  0.00000000E+00  0.00000000E+00  0.00000000E+00
  0.00000000E+00  0.00000000E+00  0.00000000E+00
  0.00000000E+00  0.00000000E+00  0.00000000E+00
  0.00000000E+00  0.00000000E+00  0.00000000E+00
  0.00000000E+00  0.00000000E+00  0.00000000E+00
  0.00000000E+00  0.00000000E+00  0.00000000E+00
  0.00000000E+00  0.00000000E+00  0.00000000E+00
  0.00000000E+00  0.00000000E+00  0.00000000E+00
  0.00000000E+00  0.00000000E+00  0.00000000E+00
