title                                   
    1.000000000000000     
     9.6820891254580133   -0.0011025567739039   -0.0290892125366809
    -0.0010709886450965    9.6625159003081098   -0.0098859464949676
    -0.0197846538327405   -0.0065858569935937    6.5227325029943044
   Ta   Ti   V 
    18    10     8
Direct
  0.4888335673155901  0.4894141045998072  0.7527487660660903
  0.8344695682563796  0.5005969178473905  0.7531609244825764
  0.0096764987466786  0.6646850381624521  0.0105945036256378
  0.0088989249742767  0.3319481993120053  0.4970641134230315
  0.4951971398485947  0.1713516206445682  0.2319821070841647
  0.6652618175972741 -0.0028773898306746 -0.0017390483717664
  0.0125116910730158  0.6632699075921714  0.4916331203937164
  0.5001152687628682  0.4916617935970652  0.2445611494438392
  0.8341059979721134  0.1647949080771451  0.7515794700670436
  0.0096211756295068  0.3312192532636009  0.0069646818531750
  0.3283008184325973  0.6691257218661519  0.0130909324666755
  0.0084438126046589  0.0042528728175731  0.4871044550937155
  0.3338442394711604 -0.0015990391576816  0.4763950830051118
  0.6650135276017373  0.3295557909359999  0.5034889835400815
  0.6601361023888088  0.6701344628741626 -0.0055344536254822
  0.8292828208431227  0.1706950418991562  0.2453036322484474
  0.3344588834383367  0.6710681095859532  0.4901053725751252
  0.8339273285115087  0.8291728575205530  0.2537959584820738
  0.6561075203537541 -0.0022822094146380  0.4940837144757051
  0.8441519735571061  0.8339557333812477  0.7435289693792733
  0.1802822773576082  0.4920229539988437  0.7499800952562453
  0.4884089637262941  0.1684649040005855  0.7580222112297961
  0.1851374203996342  0.1658388558460280  0.7565289461738043
  0.4813105480969793  0.8456468655579809  0.7653615303044273
  0.6530730976274990  0.6716331037985562  0.5010242471503353
  0.0096291663449759  0.0046319901447303  0.0179279132217443
  0.8281082307472173  0.4999078475994103  0.2448214561477622
  0.1710422004791501  0.8415860897755095  0.7541784900101944
  0.1760950324161619  0.1735151259775449  0.2517362255959438
  0.3242231818568880  0.3298233560764226  0.4783151795051148
  0.3230425401722486  0.3361634546131637  0.0256615518411920
  0.4929632126128418  0.8378690727924092  0.2282282728388197
  0.1719573624930453  0.4931424714296291  0.2552414537283175
  0.3247940320425237 -0.0070719463145666  0.0306939493536327
  0.1703370651449336  0.8341220660223005  0.2499691405462488
  0.6672369911029107  0.3325600931074430 -0.0076030986118143
 
  0.00000000E+00  0.00000000E+00  0.00000000E+00
  0.00000000E+00  0.00000000E+00  0.00000000E+00
  0.00000000E+00  0.00000000E+00  0.00000000E+00
  0.00000000E+00  0.00000000E+00  0.00000000E+00
  0.00000000E+00  0.00000000E+00  0.00000000E+00
  0.00000000E+00  0.00000000E+00  0.00000000E+00
  0.00000000E+00  0.00000000E+00  0.00000000E+00
  0.00000000E+00  0.00000000E+00  0.00000000E+00
  0.00000000E+00  0.00000000E+00  0.00000000E+00
  0.00000000E+00  0.00000000E+00  0.00000000E+00
  0.00000000E+00  0.00000000E+00  0.00000000E+00
  0.00000000E+00  0.00000000E+00  0.00000000E+00
  0.00000000E+00  0.00000000E+00  0.00000000E+00
  0.00000000E+00  0.00000000E+00  0.00000000E+00
  0.00000000E+00  0.00000000E+00  0.00000000E+00
  0.00000000E+00  0.00000000E+00  0.00000000E+00
  0.00000000E+00  0.00000000E+00  0.00000000E+00
  0.00000000E+00  0.00000000E+00  0.00000000E+00
  0.00000000E+00  0.00000000E+00  0.00000000E+00
  0.00000000E+00  0.00000000E+00  0.00000000E+00
  0.00000000E+00  0.00000000E+00  0.00000000E+00
  0.00000000E+00  0.00000000E+00  0.00000000E+00
  0.00000000E+00  0.00000000E+00  0.00000000E+00
  0.00000000E+00  0.00000000E+00  0.00000000E+00
  0.00000000E+00  0.00000000E+00  0.00000000E+00
  0.00000000E+00  0.00000000E+00  0.00000000E+00
  0.00000000E+00  0.00000000E+00  0.00000000E+00
  0.00000000E+00  0.00000000E+00  0.00000000E+00
  0.00000000E+00  0.00000000E+00  0.00000000E+00
  0.00000000E+00  0.00000000E+00  0.00000000E+00
  0.00000000E+00  0.00000000E+00  0.00000000E+00
  0.00000000E+00  0.00000000E+00  0.00000000E+00
  0.00000000E+00  0.00000000E+00  0.00000000E+00
  0.00000000E+00  0.00000000E+00  0.00000000E+00
  0.00000000E+00  0.00000000E+00  0.00000000E+00
  0.00000000E+00  0.00000000E+00  0.00000000E+00
