title                                   
    1.000000000000000     
    10.2631985261551044   -0.0206446558089320    0.1278681717669274
    -0.0232419361251335    9.9803836448266647    0.0683424192887416
     0.0856810715730028    0.0459892229615283    6.7266402856572300
   Hf   Mo   Ti   V    Zr
     4    11     3     3    15
Direct
  0.8192508727421981  0.5087813334298553  0.7788794542294311
  0.8179505048017143  0.1797620774426902  0.2322894340961234
  0.1857345427354463  0.1764120991831626  0.7350420549951917
 -0.0224890208326083 -0.0067121991169214  0.5089596950196213
  0.5006376742489583  0.8200073097466755  0.7565570978369615
  0.4998808179419676  0.1821413434906891  0.2485474920119568
  0.3469684597882821  0.3337932408433221  0.4905976827771032
  0.1906303509273562  0.4981880516360703  0.2447951104317627
  0.3360468935996649  0.6574506973938502  0.4889081985334177
  0.8264821714970559  0.1739027426547874  0.7689423045200688
  0.3428808894442887  0.3417610915995218 -0.0026754574618801
  0.4906897726250045  0.4945137865454363  0.7618365420755022
  0.6492491957699345  0.3248158740816863 -0.0068879285012656
  0.8255527862425868  0.8364105677305217  0.2463876962290604
  0.4979578462531226  0.1751473350197545  0.7579242208127550
  0.4888614012014492  0.4967108508596776  0.2444086689511344
  0.3339502675588967  0.6601488537449516 -0.0011010715773501
  0.3703625027202087  0.0103149666465701  0.5070660302543908
  0.1869665018793496  0.8329797874039592  0.2744285294811018
  0.8179263415600394  0.8046972069312099  0.7747389006020372
  0.6456333763548128  0.6777506002781748 -0.0220502633836678
  0.1872838815430717  0.8352867850335811  0.7090167782871081
  0.3486402237673137 -0.0006340243253299 -0.0069186634476445
  0.6538849469703398  0.3293911935741523  0.5182968263443187
 -0.0044474112642775  0.3389969357030324  0.4937505394816771
  0.8042340919525081  0.5009868974403677  0.2253370725907237
  0.0137157429770006  0.6755017815018197  0.0155981566040836
 -0.0082301668484116 -0.0084652439405880 -0.0006040366579353
 -0.0051309734101106  0.6730958319443325  0.4819386992570400
  0.6607501863010014  0.6714286992814451  0.5143481797071725
  0.6661737920996026 -0.0026425474362643  0.5145808208095222
  0.4870293761561439  0.8140976947519322  0.2552004340671132
  0.1859324333307892  0.5007653108841580  0.7332750022209370
  0.1842864898769033  0.1625768215520856  0.2608507726039473
  0.0080102327720212  0.3379475629258950  0.0010340004601427
  0.6667430047163732 -0.0073113164362643 -0.0032989742616644
 
  0.00000000E+00  0.00000000E+00  0.00000000E+00
  0.00000000E+00  0.00000000E+00  0.00000000E+00
  0.00000000E+00  0.00000000E+00  0.00000000E+00
  0.00000000E+00  0.00000000E+00  0.00000000E+00
  0.00000000E+00  0.00000000E+00  0.00000000E+00
  0.00000000E+00  0.00000000E+00  0.00000000E+00
  0.00000000E+00  0.00000000E+00  0.00000000E+00
  0.00000000E+00  0.00000000E+00  0.00000000E+00
  0.00000000E+00  0.00000000E+00  0.00000000E+00
  0.00000000E+00  0.00000000E+00  0.00000000E+00
  0.00000000E+00  0.00000000E+00  0.00000000E+00
  0.00000000E+00  0.00000000E+00  0.00000000E+00
  0.00000000E+00  0.00000000E+00  0.00000000E+00
  0.00000000E+00  0.00000000E+00  0.00000000E+00
  0.00000000E+00  0.00000000E+00  0.00000000E+00
  0.00000000E+00  0.00000000E+00  0.00000000E+00
  0.00000000E+00  0.00000000E+00  0.00000000E+00
  0.00000000E+00  0.00000000E+00  0.00000000E+00
  0.00000000E+00  0.00000000E+00  0.00000000E+00
  0.00000000E+00  0.00000000E+00  0.00000000E+00
  0.00000000E+00  0.00000000E+00  0.00000000E+00
  0.00000000E+00  0.00000000E+00  0.00000000E+00
  0.00000000E+00  0.00000000E+00  0.00000000E+00
  0.00000000E+00  0.00000000E+00  0.00000000E+00
  0.00000000E+00  0.00000000E+00  0.00000000E+00
  0.00000000E+00  0.00000000E+00  0.00000000E+00
  0.00000000E+00  0.00000000E+00  0.00000000E+00
  0.00000000E+00  0.00000000E+00  0.00000000E+00
  0.00000000E+00  0.00000000E+00  0.00000000E+00
  0.00000000E+00  0.00000000E+00  0.00000000E+00
  0.00000000E+00  0.00000000E+00  0.00000000E+00
  0.00000000E+00  0.00000000E+00  0.00000000E+00
  0.00000000E+00  0.00000000E+00  0.00000000E+00
  0.00000000E+00  0.00000000E+00  0.00000000E+00
  0.00000000E+00  0.00000000E+00  0.00000000E+00
  0.00000000E+00  0.00000000E+00  0.00000000E+00
