title                                   
    1.000000000000000     
     9.9727274500159950    0.0287691888725048   -0.0214055457089236
     0.0288547419680032    9.9991079124047850   -0.0057809142491117
    -0.0143227369702072   -0.0039268913886669    6.6610327110345207
   Hf   Nb   Ta   V 
     7    11    14     4
Direct
  0.1766394972053579  0.4968283981355864  0.2577103569993148
 -0.0039719050710572  0.6686109059666937  0.5004978166627683
  0.5012944700167216  0.5079260047240315  0.7342444593100184
 -0.0032390568121849  0.0003585113662561  0.4957712369844607
  0.3405305210303661  0.0022875086450118  0.0005421667711786
  0.3465606218887550  0.3182350229833454 -0.0164172391677751
  0.4988605346459666  0.5011495330616285  0.2623816403428635
  0.6687347620224874  0.0034990255287888  0.4984973791684692
 -0.0074223207401036  0.3317439527910658  0.5024317942928833
  0.8295804643741077  0.4928398999229494  0.2460305649423683
  0.1561201808637553  0.1684816339937386  0.7528483737404116
  0.6758247964646070  0.6697536885715614  0.4948639798948395
  0.1715396320850592  0.8305860686991499  0.2499453321545134
  0.6699809950778340  0.6670763483579526  0.0010654619117214
  0.1711339143154031  0.8315435552239454  0.7501949238763317
 -0.0074412545264097  0.3318681930364230  0.0017145848836532
  0.5020657922620811  0.8290979213138407  0.2550483015640084
  0.8279648424876256  0.1706418145220653  0.7490431514940924
  0.8230275380213017  0.8345550084302510  0.7617813861085463
  0.0001202395784697  0.6677444668456129 -0.0023730653427700
  0.8283204084906456  0.4952865200194190  0.7525737556021966
  0.5142223435941403  0.1696229128877843  0.2744748310551420
  0.1590499912635339  0.1754827194814826  0.2523417401415810
 -0.0034739447561478  0.0021233859728374  0.0032826055439795
  0.3327319988389488 -0.0009113870280132  0.5012927121121385
  0.1697431655521899  0.5012301611673149  0.7498515300580508
  0.3285159529266936  0.6780341204397398 -0.0045959752046107
  0.6610686464921073  0.0073054322503274 -0.0017518121091841
  0.3341751089011367  0.3138015577903984  0.5234990296847463
  0.8245993325312212  0.8368883284201066  0.2346367948841235
  0.5019937813700398  0.8277172348172158  0.7416847392985335
  0.6672074847072413  0.3242378361716958  0.0014191774538584
  0.8289031277139957  0.1725484232129114  0.2482789752892167
  0.3213384446010357  0.6891896549531702  0.5084342871037959
  0.5167415134637205  0.1600400978924289  0.7221519938098282
  0.6769583791193560  0.3225755394312823  0.4966030086847074
 
  0.00000000E+00  0.00000000E+00  0.00000000E+00
  0.00000000E+00  0.00000000E+00  0.00000000E+00
  0.00000000E+00  0.00000000E+00  0.00000000E+00
  0.00000000E+00  0.00000000E+00  0.00000000E+00
  0.00000000E+00  0.00000000E+00  0.00000000E+00
  0.00000000E+00  0.00000000E+00  0.00000000E+00
  0.00000000E+00  0.00000000E+00  0.00000000E+00
  0.00000000E+00  0.00000000E+00  0.00000000E+00
  0.00000000E+00  0.00000000E+00  0.00000000E+00
  0.00000000E+00  0.00000000E+00  0.00000000E+00
  0.00000000E+00  0.00000000E+00  0.00000000E+00
  0.00000000E+00  0.00000000E+00  0.00000000E+00
  0.00000000E+00  0.00000000E+00  0.00000000E+00
  0.00000000E+00  0.00000000E+00  0.00000000E+00
  0.00000000E+00  0.00000000E+00  0.00000000E+00
  0.00000000E+00  0.00000000E+00  0.00000000E+00
  0.00000000E+00  0.00000000E+00  0.00000000E+00
  0.00000000E+00  0.00000000E+00  0.00000000E+00
  0.00000000E+00  0.00000000E+00  0.00000000E+00
  0.00000000E+00  0.00000000E+00  0.00000000E+00
  0.00000000E+00  0.00000000E+00  0.00000000E+00
  0.00000000E+00  0.00000000E+00  0.00000000E+00
  0.00000000E+00  0.00000000E+00  0.00000000E+00
  0.00000000E+00  0.00000000E+00  0.00000000E+00
  0.00000000E+00  0.00000000E+00  0.00000000E+00
  0.00000000E+00  0.00000000E+00  0.00000000E+00
  0.00000000E+00  0.00000000E+00  0.00000000E+00
  0.00000000E+00  0.00000000E+00  0.00000000E+00
  0.00000000E+00  0.00000000E+00  0.00000000E+00
  0.00000000E+00  0.00000000E+00  0.00000000E+00
  0.00000000E+00  0.00000000E+00  0.00000000E+00
  0.00000000E+00  0.00000000E+00  0.00000000E+00
  0.00000000E+00  0.00000000E+00  0.00000000E+00
  0.00000000E+00  0.00000000E+00  0.00000000E+00
  0.00000000E+00  0.00000000E+00  0.00000000E+00
  0.00000000E+00  0.00000000E+00  0.00000000E+00
