title                                   
    1.000000000000000     
     9.7628096254531336   -0.0407905214696993   -0.0053085096844262
    -0.0409909070243637    9.6924665862417960    0.0089807339946142
    -0.0035651327994114    0.0059640463000549    6.4620590456280675
   Mo   Ta   Ti   V 
    10    19     4     3
Direct
  0.4945175554594144  0.8313379842860366  0.7494062087141919
  0.4941770873644771  0.1641763467273641  0.7518414122899792
  0.1737332519550613  0.1656642483209666  0.2496424084642193
  0.4932419679885091  0.5003449250017932  0.2471395729306117
  0.0018778123015357  0.6677187859307733  0.0041738365569649
  0.3335876195375088  0.6629645136107752  0.5011199187990677
  0.1717042551832013  0.5058404108917797  0.2450836066740777
  0.3332202715320799  0.0006390869036501 -0.0004539416302121
  0.4919935599300845  0.5010683836764700  0.7531302734054586
  0.3326191267884613  0.0018765900656112  0.5039726225439117
  0.1712106723467261  0.8318448672363358  0.7532376365432129
  0.4933741677425268  0.1610558626877509  0.2484791541536941
  0.6657300898521050 -0.0047341864626260 -0.0048396954227716
  0.6570421774226828  0.3350635281365582 -0.0038785711047543
  0.8380815886064602  0.8289523435389479  0.7525588856680865
  0.8274610932249654  0.1697798276877799  0.2522678337067002
  0.1744455333759842  0.1643758838497880  0.7530316681847760
 -0.0005241491185163  0.0019568737110095  0.0102714349736377
  0.4883630454104648  0.8341320635206421  0.2512206541726190
  0.8345687205059968  0.5023879791109501  0.2463674353903290
  0.6629694275027771  0.6654413795957989  0.4993928591839582
  0.1705723273853524  0.5082534134132617  0.7558176823261794
  0.1727555295710332  0.8310012010927470  0.2486641322348903
  0.0106272745051799  0.3322737847608201  0.0099934321216107
  0.8411283398565527  0.5015468539908591  0.7523245611820328
  0.6570828837150963  0.6650454005611185 -0.0027101005009737
  0.6540456160872780  0.3365613625275364  0.5035313603813111
  0.6664095308685508 -0.0048699028090180  0.5035035021056652
  0.8360443726348922  0.1698302954580303  0.7483256645215697
  0.3331907876246078  0.3374496556580012  0.4966191096435710
 -0.0003605247496538 -0.0009605418662178  0.4904311163734192
  0.0015096598417056  0.6690792662774947  0.4913913082628807
  0.0184298767833118  0.3362540008392010  0.4886890998138976
  0.3354009736899463  0.3398068184809812  0.0056965977543316
  0.8321866546023271  0.8280716538864702  0.2428908433437752
  0.3375818226713151  0.6587690397005593  0.0016664762380804
 
  0.00000000E+00  0.00000000E+00  0.00000000E+00
  0.00000000E+00  0.00000000E+00  0.00000000E+00
  0.00000000E+00  0.00000000E+00  0.00000000E+00
  0.00000000E+00  0.00000000E+00  0.00000000E+00
  0.00000000E+00  0.00000000E+00  0.00000000E+00
  0.00000000E+00  0.00000000E+00  0.00000000E+00
  0.00000000E+00  0.00000000E+00  0.00000000E+00
  0.00000000E+00  0.00000000E+00  0.00000000E+00
  0.00000000E+00  0.00000000E+00  0.00000000E+00
  0.00000000E+00  0.00000000E+00  0.00000000E+00
  0.00000000E+00  0.00000000E+00  0.00000000E+00
  0.00000000E+00  0.00000000E+00  0.00000000E+00
  0.00000000E+00  0.00000000E+00  0.00000000E+00
  0.00000000E+00  0.00000000E+00  0.00000000E+00
  0.00000000E+00  0.00000000E+00  0.00000000E+00
  0.00000000E+00  0.00000000E+00  0.00000000E+00
  0.00000000E+00  0.00000000E+00  0.00000000E+00
  0.00000000E+00  0.00000000E+00  0.00000000E+00
  0.00000000E+00  0.00000000E+00  0.00000000E+00
  0.00000000E+00  0.00000000E+00  0.00000000E+00
  0.00000000E+00  0.00000000E+00  0.00000000E+00
  0.00000000E+00  0.00000000E+00  0.00000000E+00
  0.00000000E+00  0.00000000E+00  0.00000000E+00
  0.00000000E+00  0.00000000E+00  0.00000000E+00
  0.00000000E+00  0.00000000E+00  0.00000000E+00
  0.00000000E+00  0.00000000E+00  0.00000000E+00
  0.00000000E+00  0.00000000E+00  0.00000000E+00
  0.00000000E+00  0.00000000E+00  0.00000000E+00
  0.00000000E+00  0.00000000E+00  0.00000000E+00
  0.00000000E+00  0.00000000E+00  0.00000000E+00
  0.00000000E+00  0.00000000E+00  0.00000000E+00
  0.00000000E+00  0.00000000E+00  0.00000000E+00
  0.00000000E+00  0.00000000E+00  0.00000000E+00
  0.00000000E+00  0.00000000E+00  0.00000000E+00
  0.00000000E+00  0.00000000E+00  0.00000000E+00
  0.00000000E+00  0.00000000E+00  0.00000000E+00
