title                                   
    1.000000000000000     
     9.4975077527412139    0.0333800537199336   -0.0004266004924531
     0.0333630770976785    9.4885334993238182   -0.0483908741559547
    -0.0002968216932121   -0.0322042545524948    6.3336860128397650
   Cr   Mo   Nb   Ta   W 
     8     7     7     7     7
Direct
  0.4971048597000252  0.8328997055106865  0.7482801797820503
  0.8321072713619847  0.1674983174989352  0.2599844573214347
  0.6697724872223376  0.0009116622444586  0.5022972666933431
 -0.0035237720839532  0.3339359855899874  0.4989227695593696
  0.3324001267379788  0.6674419452930521 -0.0000711866132196
  0.8284677882849500  0.8339790350960401  0.7442980309602630
  0.8307285304540515  0.1674337529652934  0.7391168295176763
  0.0061117438559580  0.6661730115296313  0.0001016700792245
  0.3347253289290448 -0.0043164812268489  0.5008344049880918
  0.3349564578985268  0.3373432933030546  0.0012283443893583
  0.4998706901587510  0.5037918484069535  0.7525227994833642
  0.5030928386673125  0.1634937007005609  0.2514856300934167
  0.8362461612574751  0.4979575831572856  0.2548436341149643
  0.1676108640787599  0.5037722030702977  0.2462788698406647
  0.1683615546285139  0.8297871515063585  0.7560308929582513
  0.8314020272279998  0.8336525583913447  0.2503867101638408
 -0.0084080484842406 -0.0022469926829771 -0.0056419756930731
 -0.0046535001547262  0.3325915982886650  0.0062977962221568
  0.4979663141002878  0.8330935117904185  0.2532354863344391
  0.6655882172191356  0.6693626462551947 -0.0048338805385975
 -0.0112370249106584  0.0016747364600966  0.5030158697304214
  0.5017720012979409  0.1608971735108747  0.7422906908960005
  0.3360516533740272  0.3392516526232637  0.4980759110032171
  0.1647360943833352  0.1691391016040401  0.7479475495248871
  0.8389926012641079  0.4999891934705231  0.7490393948970258
  0.1643725115824462  0.1667423736688217  0.2517394821516403
  0.0014282861788119  0.6689700760252147  0.5021395261601611
  0.6697200728791548  0.0002269548434383 -0.0104465546049188
  0.6710037450392176  0.3276710495590502  0.0024653938860909
  0.3350466166312190 -0.0066942177605634 -0.0041220284739672
  0.6726592350198086  0.3279870305723369  0.4972013915663099
  0.3339421041526607  0.6676173615419738  0.5069614113755923
  0.1663886784117602  0.5041399833698017  0.7578334555569846
  0.4997416221031304  0.5037911779868134  0.2495465907577460
  0.1694086203627148  0.8297522145058698  0.2444013907006336
  0.6660452411701491  0.6702881013300525  0.5063117952151583
 
  0.00000000E+00  0.00000000E+00  0.00000000E+00
  0.00000000E+00  0.00000000E+00  0.00000000E+00
  0.00000000E+00  0.00000000E+00  0.00000000E+00
  0.00000000E+00  0.00000000E+00  0.00000000E+00
  0.00000000E+00  0.00000000E+00  0.00000000E+00
  0.00000000E+00  0.00000000E+00  0.00000000E+00
  0.00000000E+00  0.00000000E+00  0.00000000E+00
  0.00000000E+00  0.00000000E+00  0.00000000E+00
  0.00000000E+00  0.00000000E+00  0.00000000E+00
  0.00000000E+00  0.00000000E+00  0.00000000E+00
  0.00000000E+00  0.00000000E+00  0.00000000E+00
  0.00000000E+00  0.00000000E+00  0.00000000E+00
  0.00000000E+00  0.00000000E+00  0.00000000E+00
  0.00000000E+00  0.00000000E+00  0.00000000E+00
  0.00000000E+00  0.00000000E+00  0.00000000E+00
  0.00000000E+00  0.00000000E+00  0.00000000E+00
  0.00000000E+00  0.00000000E+00  0.00000000E+00
  0.00000000E+00  0.00000000E+00  0.00000000E+00
  0.00000000E+00  0.00000000E+00  0.00000000E+00
  0.00000000E+00  0.00000000E+00  0.00000000E+00
  0.00000000E+00  0.00000000E+00  0.00000000E+00
  0.00000000E+00  0.00000000E+00  0.00000000E+00
  0.00000000E+00  0.00000000E+00  0.00000000E+00
  0.00000000E+00  0.00000000E+00  0.00000000E+00
  0.00000000E+00  0.00000000E+00  0.00000000E+00
  0.00000000E+00  0.00000000E+00  0.00000000E+00
  0.00000000E+00  0.00000000E+00  0.00000000E+00
  0.00000000E+00  0.00000000E+00  0.00000000E+00
  0.00000000E+00  0.00000000E+00  0.00000000E+00
  0.00000000E+00  0.00000000E+00  0.00000000E+00
  0.00000000E+00  0.00000000E+00  0.00000000E+00
  0.00000000E+00  0.00000000E+00  0.00000000E+00
  0.00000000E+00  0.00000000E+00  0.00000000E+00
  0.00000000E+00  0.00000000E+00  0.00000000E+00
  0.00000000E+00  0.00000000E+00  0.00000000E+00
  0.00000000E+00  0.00000000E+00  0.00000000E+00
