title                                   
    1.000000000000000     
     9.8870343358174999   -0.1006732218047524   -0.0384986871199758
    -0.1009203133659645    9.8024366288617486   -0.0171223733196686
    -0.0255920040247013   -0.0113701886060402    6.5676095583724745
   Mo   Nb   Ti   W    Zr
     7     8     7     7     7
Direct
  0.1703158091776893  0.8255530654926423  0.2518833549964354
  0.6587562057900290  0.3365057497979903 -0.0005709639555947
  0.1691243864421147  0.8292474145478776  0.7519319728769190
  0.6604942541357555  0.3343146861915099  0.4962170840278387
  0.1720709263120042  0.5025983894199910  0.7561945646901324
  0.3262622852540663  0.6657120582844068  0.4990379135616598
  0.5004734264327059  0.4982247825950850  0.7423452237895072
  0.3267723460583546 -0.0078708932946137  0.0071882054897689
  0.1780220052372867  0.1767754449724014  0.2451123067420679
  0.3290296402068547 -0.0008716941984695  0.4872791858651447
  0.3302698439475679  0.6647810201642718 -0.0043957505234125
  0.3389738589517567  0.3454369217602611 -0.0034256892167070
  0.0087738803366251  0.6727326180545445  0.0043189440031179
  0.4987120174784985  0.8332311690813808  0.2508003203455469
  0.6741201854069834  0.0011750153462427  0.4822744278249810
  0.8186502406889526  0.4921613406621734  0.7540538948158328
  0.6469164921018323  0.6602740425693465  0.0058633668374281
  0.5069437745399308  0.1747623404581782  0.7468352189213446
  0.5080812957461117  0.1744525104497009  0.2461098162498686
  0.0114307695145437  0.6697578177913603  0.5072794384313289
  0.0024875193962357 -0.0084934158353566  0.0206001546300152
  0.1751397543205521  0.5030986139655419  0.2517242293289039
  0.3402965844213974  0.3452657314799493  0.5024079302907238
  0.0049614892098110  0.3336289232256385  0.0057532281426943
  0.8257164197085551  0.1681347557159051  0.2388061608680487
  0.6578685648960002  0.6623547221156784  0.4874001335432969
  0.4971414257724263  0.4968843453784806  0.2562354992378051
  0.6713911250062261 -0.0029923898144489  0.0161974750822721
  0.8246923300712456  0.8260068524330977  0.2472619863269747
  0.1777315225723146  0.1679768482970397  0.7586573806866515
  0.4989982013598735  0.8370263773471937  0.7396459861411707
  0.8259140137554729  0.8227970815082014  0.7535181299350349
  0.0027583790596955 -0.0086742363008976  0.4854176880511800
  0.8270397318560384  0.4970705801715769  0.2453960462093146
  0.8250359353187084  0.1696947354533408  0.7579597813522381
  0.0086333595157831  0.3412666747127771  0.5066853544004674
 
  0.00000000E+00  0.00000000E+00  0.00000000E+00
  0.00000000E+00  0.00000000E+00  0.00000000E+00
  0.00000000E+00  0.00000000E+00  0.00000000E+00
  0.00000000E+00  0.00000000E+00  0.00000000E+00
  0.00000000E+00  0.00000000E+00  0.00000000E+00
  0.00000000E+00  0.00000000E+00  0.00000000E+00
  0.00000000E+00  0.00000000E+00  0.00000000E+00
  0.00000000E+00  0.00000000E+00  0.00000000E+00
  0.00000000E+00  0.00000000E+00  0.00000000E+00
  0.00000000E+00  0.00000000E+00  0.00000000E+00
  0.00000000E+00  0.00000000E+00  0.00000000E+00
  0.00000000E+00  0.00000000E+00  0.00000000E+00
  0.00000000E+00  0.00000000E+00  0.00000000E+00
  0.00000000E+00  0.00000000E+00  0.00000000E+00
  0.00000000E+00  0.00000000E+00  0.00000000E+00
  0.00000000E+00  0.00000000E+00  0.00000000E+00
  0.00000000E+00  0.00000000E+00  0.00000000E+00
  0.00000000E+00  0.00000000E+00  0.00000000E+00
  0.00000000E+00  0.00000000E+00  0.00000000E+00
  0.00000000E+00  0.00000000E+00  0.00000000E+00
  0.00000000E+00  0.00000000E+00  0.00000000E+00
  0.00000000E+00  0.00000000E+00  0.00000000E+00
  0.00000000E+00  0.00000000E+00  0.00000000E+00
  0.00000000E+00  0.00000000E+00  0.00000000E+00
  0.00000000E+00  0.00000000E+00  0.00000000E+00
  0.00000000E+00  0.00000000E+00  0.00000000E+00
  0.00000000E+00  0.00000000E+00  0.00000000E+00
  0.00000000E+00  0.00000000E+00  0.00000000E+00
  0.00000000E+00  0.00000000E+00  0.00000000E+00
  0.00000000E+00  0.00000000E+00  0.00000000E+00
  0.00000000E+00  0.00000000E+00  0.00000000E+00
  0.00000000E+00  0.00000000E+00  0.00000000E+00
  0.00000000E+00  0.00000000E+00  0.00000000E+00
  0.00000000E+00  0.00000000E+00  0.00000000E+00
  0.00000000E+00  0.00000000E+00  0.00000000E+00
  0.00000000E+00  0.00000000E+00  0.00000000E+00
