title                                   
    1.000000000000000     
     9.4457814910987672    0.0550715883478103   -0.0721510344502144
     0.0545519609698047    9.4261808915387082   -0.1235066619696666
    -0.0478827191019478   -0.0825169197578064    6.2904949053327925
   Cr   Ta   Ti
    12    12    12
Direct
  0.0085262983130381  0.3196903015709942  0.4867991942793945
  0.3431716332503503  0.3276948682421688 -0.0001369952357610
  0.8350947766257882  0.1561905221223514  0.2506343311537326
 -0.0070806122903839  0.6690857852992833  0.0048999566519949
  0.6692356589527493 -0.0019422071867672 -0.0045604403032143
  0.5044465071593702  0.8379196092211955  0.2386166131508665
  0.4951713304892421  0.4956333239742856  0.7515055104969270
  0.8226790481717010  0.8380047752476936  0.7551534597936561
  0.1593813588152564  0.1741754209754678  0.2721692885381763
  0.5012350154611134  0.1725537721362632  0.2355644766898113
  0.5013655916150764  0.1631388787973299  0.7498748046572256
 -0.0066679136254973  0.0052302812722331  0.4837935578561970
  0.6604820258536916 -0.0006025373990591  0.4815200820884088
  0.0037127104575698  0.3120365486317874  0.0168495979448209
  0.6614511795236513  0.3208313436028488  0.4895719060118193
  0.1669405989401300  0.5019020789021249  0.2508950425702642
  0.8362073549549469  0.8301921564371246  0.2349716833371836
  0.8372523935015898  0.4945368377165582  0.2469363541898902
  0.3405707815881351  0.6705447059127083  0.5147439702310314
  0.6625328941717117  0.6673811779950956  0.5045553017439299
  0.3403014699244924  0.6797282899423571  0.0047463541564761
 -0.0080602428130658  0.6747211975085450  0.5240736686503096
  0.3406324040913493  0.3296618398851769  0.5048430473457211
  0.6606970040950683  0.3164882094665345 -0.0181360597539451
  0.3408035267759207  0.0194607122434677  0.0307955699758011
  0.8451694004581367  0.4883066194776448  0.7493265221811397
  0.3441452797694766  0.0137183664411841  0.4833252516773600
  0.1651826201637761  0.1671721187875581  0.7415566341168323
 -0.0053389803832126  0.0101917982955270  0.0159806665037176
  0.1585396371115617  0.8490353612585135  0.7536696879742819
  0.6598609275167704  0.6622576087287924 -0.0163933160860278
  0.1637276264756772  0.4951305254757678  0.7658296521571217
  0.5067619626054359  0.8551487525164965  0.7680621555969516
  0.4904937581131132  0.4927260611137390  0.2295661921803895
  0.8465514134336731  0.1501745394850770  0.7248299905972232
  0.1548235607325971  0.8418803559019303  0.2735662868802918
 
  0.00000000E+00  0.00000000E+00  0.00000000E+00
  0.00000000E+00  0.00000000E+00  0.00000000E+00
  0.00000000E+00  0.00000000E+00  0.00000000E+00
  0.00000000E+00  0.00000000E+00  0.00000000E+00
  0.00000000E+00  0.00000000E+00  0.00000000E+00
  0.00000000E+00  0.00000000E+00  0.00000000E+00
  0.00000000E+00  0.00000000E+00  0.00000000E+00
  0.00000000E+00  0.00000000E+00  0.00000000E+00
  0.00000000E+00  0.00000000E+00  0.00000000E+00
  0.00000000E+00  0.00000000E+00  0.00000000E+00
  0.00000000E+00  0.00000000E+00  0.00000000E+00
  0.00000000E+00  0.00000000E+00  0.00000000E+00
  0.00000000E+00  0.00000000E+00  0.00000000E+00
  0.00000000E+00  0.00000000E+00  0.00000000E+00
  0.00000000E+00  0.00000000E+00  0.00000000E+00
  0.00000000E+00  0.00000000E+00  0.00000000E+00
  0.00000000E+00  0.00000000E+00  0.00000000E+00
  0.00000000E+00  0.00000000E+00  0.00000000E+00
  0.00000000E+00  0.00000000E+00  0.00000000E+00
  0.00000000E+00  0.00000000E+00  0.00000000E+00
  0.00000000E+00  0.00000000E+00  0.00000000E+00
  0.00000000E+00  0.00000000E+00  0.00000000E+00
  0.00000000E+00  0.00000000E+00  0.00000000E+00
  0.00000000E+00  0.00000000E+00  0.00000000E+00
  0.00000000E+00  0.00000000E+00  0.00000000E+00
  0.00000000E+00  0.00000000E+00  0.00000000E+00
  0.00000000E+00  0.00000000E+00  0.00000000E+00
  0.00000000E+00  0.00000000E+00  0.00000000E+00
  0.00000000E+00  0.00000000E+00  0.00000000E+00
  0.00000000E+00  0.00000000E+00  0.00000000E+00
  0.00000000E+00  0.00000000E+00  0.00000000E+00
  0.00000000E+00  0.00000000E+00  0.00000000E+00
  0.00000000E+00  0.00000000E+00  0.00000000E+00
  0.00000000E+00  0.00000000E+00  0.00000000E+00
  0.00000000E+00  0.00000000E+00  0.00000000E+00
  0.00000000E+00  0.00000000E+00  0.00000000E+00
