title                                   
    1.000000000000000     
     9.2810992758302007   -0.0494826954545339    0.0453845227126405
    -0.0497082588257384    9.2317583242352423    0.1309707114308305
     0.0304034016496711    0.0874861543737312    6.1885146482772715
   Cr   Hf   V    W 
    11     7    14     4
Direct
  0.3260607649839765  0.3272369153072968  0.0079145198272435
  0.5129723819791643  0.8300920189921309  0.2756701099737350
  0.5103711597223990  0.8359568164947168  0.7344512197357740
  0.8270669527202161  0.8263594568549921  0.7451020049829609
  0.6694894581667299  0.6762889809741837  0.4941241149308142
  0.8298470809908841  0.5127257905378317  0.2322598957975664
  0.3474346014186477  0.0103039071941459  0.4993472148257882
  0.8312012341579817  0.5113204860430857  0.7579487882093774
  0.1412931634388022  0.8359285167674719  0.2628023984461473
  0.1664850794436556  0.4986766361949924  0.2368151109499554
 -0.0064781268163761 -0.0071344202962459  0.4767041186132343
  0.0035921011064428  0.3481992211970171  0.4885248957875402
  0.3372332040558312 -0.0036714073747369  0.0138976974006949
  0.1559250642173545  0.8458477379660103  0.7172026028479775
  0.3300093416377767  0.6757334677268290  0.0168236318672764
  0.4993394727116893  0.5033229509941153  0.7540738657250332
  0.6754041761122002  0.3379560549588362  0.4922998338749358
  0.8477376104608177  0.1482321517231925  0.7610793612902564
  0.0101413337148729  0.3419247201271871  0.0001585134067459
  0.4971741221197707  0.1672348254840209  0.7560246015106410
  0.5014452552884685  0.5020402443502235  0.2477814031154471
  0.6750265341878214  0.6671457628595256  0.0038892639848663
  0.4956145968738398  0.1658930058869501  0.2629573585023566
  0.0049672262843621 -0.0126113702462223  0.0213808606022427
  0.6778131723362459  0.3390862209377158  0.0118494225686971
  0.1731597960322832  0.1684885796890291  0.2505628594640614
  0.3310846118163930  0.6732158282825598  0.4758622192429078
  0.8262927034144245  0.8244893474216574  0.2612931966422479
  0.1739606227477798  0.1705348329498214  0.7523039770151094
  0.1701509898026719  0.5000496195122178  0.7476256427887769
  0.6565545115223196 -0.0156020244873407  0.5116958317803731
 -0.0160917443427164  0.6624786867873479  0.4882555252144948
 -0.0096588222764655  0.6606616427893983 -0.0033314455818729
  0.3294664641582692  0.3336483442578361  0.4920044122304995
  0.8384349405712330  0.1532045328086385  0.2427552008601954
  0.6594789652402320 -0.0152580816664315  0.0098897715658987
 
  0.00000000E+00  0.00000000E+00  0.00000000E+00
  0.00000000E+00  0.00000000E+00  0.00000000E+00
  0.00000000E+00  0.00000000E+00  0.00000000E+00
  0.00000000E+00  0.00000000E+00  0.00000000E+00
  0.00000000E+00  0.00000000E+00  0.00000000E+00
  0.00000000E+00  0.00000000E+00  0.00000000E+00
  0.00000000E+00  0.00000000E+00  0.00000000E+00
  0.00000000E+00  0.00000000E+00  0.00000000E+00
  0.00000000E+00  0.00000000E+00  0.00000000E+00
  0.00000000E+00  0.00000000E+00  0.00000000E+00
  0.00000000E+00  0.00000000E+00  0.00000000E+00
  0.00000000E+00  0.00000000E+00  0.00000000E+00
  0.00000000E+00  0.00000000E+00  0.00000000E+00
  0.00000000E+00  0.00000000E+00  0.00000000E+00
  0.00000000E+00  0.00000000E+00  0.00000000E+00
  0.00000000E+00  0.00000000E+00  0.00000000E+00
  0.00000000E+00  0.00000000E+00  0.00000000E+00
  0.00000000E+00  0.00000000E+00  0.00000000E+00
  0.00000000E+00  0.00000000E+00  0.00000000E+00
  0.00000000E+00  0.00000000E+00  0.00000000E+00
  0.00000000E+00  0.00000000E+00  0.00000000E+00
  0.00000000E+00  0.00000000E+00  0.00000000E+00
  0.00000000E+00  0.00000000E+00  0.00000000E+00
  0.00000000E+00  0.00000000E+00  0.00000000E+00
  0.00000000E+00  0.00000000E+00  0.00000000E+00
  0.00000000E+00  0.00000000E+00  0.00000000E+00
  0.00000000E+00  0.00000000E+00  0.00000000E+00
  0.00000000E+00  0.00000000E+00  0.00000000E+00
  0.00000000E+00  0.00000000E+00  0.00000000E+00
  0.00000000E+00  0.00000000E+00  0.00000000E+00
  0.00000000E+00  0.00000000E+00  0.00000000E+00
  0.00000000E+00  0.00000000E+00  0.00000000E+00
  0.00000000E+00  0.00000000E+00  0.00000000E+00
  0.00000000E+00  0.00000000E+00  0.00000000E+00
  0.00000000E+00  0.00000000E+00  0.00000000E+00
  0.00000000E+00  0.00000000E+00  0.00000000E+00
