title                                   
    1.000000000000000     
    10.0982809497239874   -0.0102284160855111   -0.0219558601706606
    -0.0100771163372028   10.0360044698459028    0.0057884092590556
    -0.0149485357921603    0.0039413575313962    6.8450951524500532
   Hf   Nb   Ti   W    Zr
     8     7     7     7     7
Direct
 -0.0158674589691082  0.0056425382068854  0.4830832732127728
  0.5022550716992488  0.5042561691989170  0.2444861468983102
  0.3175644647456896  0.3344982365550699  0.5044054467947074
  0.3283267226051586  0.3223493630741466 -0.0096213070310075
  0.8328380874711814  0.4899569881929300  0.7563592575847679
 -0.0007986103441973  0.6561860186770527  0.4804994756059527
  0.4896975971848650  0.8268328577931590  0.2438918175883979
  0.6752720148558724  0.0021878267905806  0.4925592642590823
 -0.0024742608700194  0.6627226809185454  0.0229745831831391
  0.5015112680180155  0.1734324960084085  0.2632701935036492
  0.3131260657221288  0.6443389728087968  0.4982087852361610
  0.1692664095611187  0.1534311626549666  0.2560056721623911
  0.5050551973260680  0.1721670268520287  0.7318485860125702
  0.1644589041097802  0.5017914396147747  0.2244189279820741
 -0.0065413584548586  0.3257761159854225  0.0201308312870145
  0.8312228163992209  0.1898734494324837  0.7442679937684563
  0.3481699607492734  0.0285748660885380  0.0027202105201989
  0.1575133311464720  0.5086181087482270  0.7755922244487311
  0.6755613731373731  0.3245243758346866  0.0211157946030363
 -0.0124641324126750  0.0094736680970108  0.0279937726137023
  0.1627216722129088  0.1476837599500216  0.7471707052116160
 -0.0045586189693555  0.3300427880702615  0.4794131917070337
  0.8268181679551193  0.4947997454144931  0.2398469066453296
  0.6754964831706415  0.3288031774565778  0.4791957093387156
  0.3424894427596352  0.0183336797603390  0.4961275589564745
  0.6787188522712413  0.6641727762791789  0.0177168783530171
  0.3247267269667451  0.6547052548675731  0.0014059581371532
  0.8330171756046847  0.8270581621084770  0.2296261395964575
  0.8313100345344336  0.1781853803165528  0.2539054423978626
  0.6717936573902156  0.0102322290750753 -0.0002656728080950
  0.1796089885755163  0.8392517980903083  0.2464602659323215
  0.8510355636270769  0.8246158385963427  0.7727747141483415
  0.5048087370152931  0.5056078536060860  0.7555864033327410
  0.4896220602312276  0.8291377664210885  0.7539166948919312
  0.6846465080093149  0.6765840579447975  0.4875162418397087
  0.1740510849646943  0.8341513705101955  0.7553919120852849
 
  0.00000000E+00  0.00000000E+00  0.00000000E+00
  0.00000000E+00  0.00000000E+00  0.00000000E+00
  0.00000000E+00  0.00000000E+00  0.00000000E+00
  0.00000000E+00  0.00000000E+00  0.00000000E+00
  0.00000000E+00  0.00000000E+00  0.00000000E+00
  0.00000000E+00  0.00000000E+00  0.00000000E+00
  0.00000000E+00  0.00000000E+00  0.00000000E+00
  0.00000000E+00  0.00000000E+00  0.00000000E+00
  0.00000000E+00  0.00000000E+00  0.00000000E+00
  0.00000000E+00  0.00000000E+00  0.00000000E+00
  0.00000000E+00  0.00000000E+00  0.00000000E+00
  0.00000000E+00  0.00000000E+00  0.00000000E+00
  0.00000000E+00  0.00000000E+00  0.00000000E+00
  0.00000000E+00  0.00000000E+00  0.00000000E+00
  0.00000000E+00  0.00000000E+00  0.00000000E+00
  0.00000000E+00  0.00000000E+00  0.00000000E+00
  0.00000000E+00  0.00000000E+00  0.00000000E+00
  0.00000000E+00  0.00000000E+00  0.00000000E+00
  0.00000000E+00  0.00000000E+00  0.00000000E+00
  0.00000000E+00  0.00000000E+00  0.00000000E+00
  0.00000000E+00  0.00000000E+00  0.00000000E+00
  0.00000000E+00  0.00000000E+00  0.00000000E+00
  0.00000000E+00  0.00000000E+00  0.00000000E+00
  0.00000000E+00  0.00000000E+00  0.00000000E+00
  0.00000000E+00  0.00000000E+00  0.00000000E+00
  0.00000000E+00  0.00000000E+00  0.00000000E+00
  0.00000000E+00  0.00000000E+00  0.00000000E+00
  0.00000000E+00  0.00000000E+00  0.00000000E+00
  0.00000000E+00  0.00000000E+00  0.00000000E+00
  0.00000000E+00  0.00000000E+00  0.00000000E+00
  0.00000000E+00  0.00000000E+00  0.00000000E+00
  0.00000000E+00  0.00000000E+00  0.00000000E+00
  0.00000000E+00  0.00000000E+00  0.00000000E+00
  0.00000000E+00  0.00000000E+00  0.00000000E+00
  0.00000000E+00  0.00000000E+00  0.00000000E+00
  0.00000000E+00  0.00000000E+00  0.00000000E+00
