title                                   
    1.000000000000000     
     9.7935389419106826   -0.0761542988588265   -0.0333751859447575
    -0.0762599190431697    9.7973329558415259   -0.0479123134619184
    -0.0223549923892401   -0.0318679613819813    6.5430210084309319
   Mo   Nb   Ta   V    Zr
     7     7     7     8     7
Direct
  0.1684789826784219  0.5018866523203886  0.2441850998500691
  0.8405812534341290  0.1594337240203526  0.7365624227766649
  0.6704422359783853  0.0025976737369159  0.5021437794682976
  0.3259588275452923  0.6632534556629445 -0.0037568008612437
  0.6723443721913872  0.6670087888641414 -0.0110993652533468
  0.8405782634615661  0.1598408701155075  0.2654403216205471
  0.8351081811657615  0.5116816897177605  0.2602479351280325
  0.0033718321861746  0.6633976617692083  0.4941094530620356
  0.3297478116598099  0.3355456600400127 -0.0016014669075624
  0.4961598351460320  0.1680342566182194  0.7421497237723036
  0.6726312216816408  0.3358782349144283  0.5080454718147744
 -0.0005776368809865  0.3335734596643149  0.5015301530559290
  0.3307458844922859 -0.0060784261801019 -0.0011649973476896
  0.8335029964212272  0.5175686303676794  0.7470281936142706
  0.1602881812410102  0.1584694176929010  0.7517881052093763
  0.4950329983759462  0.1671320931157864  0.2596697628977301
  0.1621203759387546  0.1562251028324539  0.2501206774492292
  0.3269993213072778  0.3381468665929379  0.5093372233865525
  0.5136641068271104  0.8221122314771964  0.7484225628719248
  0.5108181414459585  0.8242630716940198  0.2398059773337456
  0.1425486121880786  0.8325700105508064  0.7732336850774199
  0.8325687510422562  0.8331005097677111  0.7361959389544486
  0.1716299585025267  0.5069406849474311  0.7647059903303881
 -0.0065683325173288  0.0084513225154308 -0.0065881581811081
 -0.0081236037678062  0.0065323039241660  0.5064353746550371
  0.0055234733140952  0.6591475226225773  0.0042889583748769
  0.6769566813481219  0.6657814132573660  0.5072643240632414
  0.5026784940627959  0.5107570933634044  0.7614092140862214
  0.1501180558001831  0.8300880119966341  0.2172467049287179
  0.8388233200862029  0.8341365049955175  0.2493736232823898
  0.6754929094775460  0.0081396137395711 -0.0076752566548199
 -0.0015808904413101  0.3393669433134849  0.0053469316662958
  0.3236969854121591  0.6634845462549587  0.5018488480719248
  0.5064109498122003  0.5057091186910042  0.2493863345813473
  0.3247468339434066 -0.0165955271237202  0.4956838142391061
  0.6770806154396869  0.3324188121465887 -0.0011205604171274
 
  0.00000000E+00  0.00000000E+00  0.00000000E+00
  0.00000000E+00  0.00000000E+00  0.00000000E+00
  0.00000000E+00  0.00000000E+00  0.00000000E+00
  0.00000000E+00  0.00000000E+00  0.00000000E+00
  0.00000000E+00  0.00000000E+00  0.00000000E+00
  0.00000000E+00  0.00000000E+00  0.00000000E+00
  0.00000000E+00  0.00000000E+00  0.00000000E+00
  0.00000000E+00  0.00000000E+00  0.00000000E+00
  0.00000000E+00  0.00000000E+00  0.00000000E+00
  0.00000000E+00  0.00000000E+00  0.00000000E+00
  0.00000000E+00  0.00000000E+00  0.00000000E+00
  0.00000000E+00  0.00000000E+00  0.00000000E+00
  0.00000000E+00  0.00000000E+00  0.00000000E+00
  0.00000000E+00  0.00000000E+00  0.00000000E+00
  0.00000000E+00  0.00000000E+00  0.00000000E+00
  0.00000000E+00  0.00000000E+00  0.00000000E+00
  0.00000000E+00  0.00000000E+00  0.00000000E+00
  0.00000000E+00  0.00000000E+00  0.00000000E+00
  0.00000000E+00  0.00000000E+00  0.00000000E+00
  0.00000000E+00  0.00000000E+00  0.00000000E+00
  0.00000000E+00  0.00000000E+00  0.00000000E+00
  0.00000000E+00  0.00000000E+00  0.00000000E+00
  0.00000000E+00  0.00000000E+00  0.00000000E+00
  0.00000000E+00  0.00000000E+00  0.00000000E+00
  0.00000000E+00  0.00000000E+00  0.00000000E+00
  0.00000000E+00  0.00000000E+00  0.00000000E+00
  0.00000000E+00  0.00000000E+00  0.00000000E+00
  0.00000000E+00  0.00000000E+00  0.00000000E+00
  0.00000000E+00  0.00000000E+00  0.00000000E+00
  0.00000000E+00  0.00000000E+00  0.00000000E+00
  0.00000000E+00  0.00000000E+00  0.00000000E+00
  0.00000000E+00  0.00000000E+00  0.00000000E+00
  0.00000000E+00  0.00000000E+00  0.00000000E+00
  0.00000000E+00  0.00000000E+00  0.00000000E+00
  0.00000000E+00  0.00000000E+00  0.00000000E+00
  0.00000000E+00  0.00000000E+00  0.00000000E+00
