title                                   
    1.000000000000000     
     9.6341919170872252    0.0021211260160157   -0.0117179186872960
     0.0021055482610480    9.6649637836642590   -0.0072299536021931
    -0.0077570067394871   -0.0047837307431003    6.4566856268004100
   Hf   Nb   Ta   V    Zr
     1     6    12    15     2
Direct
  0.6580800591815741  0.0029758894853783  0.4922131784228861
  0.8348808616347320  0.8260631020260619  0.7507303339708108
  0.4958073347466954  0.8274452324518823  0.7485737852208845
  0.4924736321341955  0.8264962500412133  0.2529034097611360
  0.3293171638257495  0.3253446263376449  0.0010371687736641
  0.3250882258304934  0.0029658586545644  0.0081434162006333
  0.8343497202396000  0.1745595676507801  0.7508774516045109
  0.1706434047460950  0.4990839559059438  0.7311940232042629
  0.8318749842468672  0.4993154129927924  0.2589587397440369
  0.8374677525667629  0.8239097466364163  0.2472490029543000
  0.0049186241683316  0.0051008616451804  0.4924333638111891
  0.5082031313524139  0.4974371594732479  0.7439423418805056
  0.0004445122577303  0.6635388555143765 -0.0061601182959766
  0.6619830497999549  0.0014294588092138  0.0055875799218132
  0.8356496902681120  0.1780346413861444  0.2460806342479950
  0.4939372127183962  0.1766381089753822  0.7503982813115606
  0.1655281762967853  0.8389948117497884  0.7432890046821340
  0.3321855839183466  0.6710506229272882 -0.0027644711667840
  0.0025131134277692  0.3321012971075977 -0.0113223547758892
  0.4867852929518232  0.1733024666923985  0.2481232015212409
  0.0063724587732386  0.0047527989377999  0.0046786032226915
  0.6757247724731107  0.6600928374131799 -0.0129443271657890
  0.8285741579785449  0.5011175658947290  0.7458755088517659
 -0.0003389552304193  0.3241629729358093  0.5114259259866850
  0.1664328398621175  0.1615629692278769  0.2523923587020577
  0.3243249894814563  0.0068844119313612  0.4908436157072021
  0.3260638919184974  0.3017431720813653  0.4992010686721028
  0.1683544014284011  0.1645123687988377  0.7426042650274653
  0.6771979574875284  0.6647287642274359  0.5172183158216531
 -0.0060041190439819  0.6721056221399008  0.5073123219718393
  0.1640145868727194  0.8404023342593070  0.2524805925378469
  0.6761361981328885  0.3366758154204099 -0.0125175608137868
  0.3338087501287849  0.6899386022415163  0.5033136080121684
  0.6771710931101077  0.3322471050502411  0.5157272284578324
  0.1684739916998360  0.4995352587710895  0.2714788397208645
  0.5115614586147413  0.4937494742058441  0.2594216622924864
 
  0.00000000E+00  0.00000000E+00  0.00000000E+00
  0.00000000E+00  0.00000000E+00  0.00000000E+00
  0.00000000E+00  0.00000000E+00  0.00000000E+00
  0.00000000E+00  0.00000000E+00  0.00000000E+00
  0.00000000E+00  0.00000000E+00  0.00000000E+00
  0.00000000E+00  0.00000000E+00  0.00000000E+00
  0.00000000E+00  0.00000000E+00  0.00000000E+00
  0.00000000E+00  0.00000000E+00  0.00000000E+00
  0.00000000E+00  0.00000000E+00  0.00000000E+00
  0.00000000E+00  0.00000000E+00  0.00000000E+00
  0.00000000E+00  0.00000000E+00  0.00000000E+00
  0.00000000E+00  0.00000000E+00  0.00000000E+00
  0.00000000E+00  0.00000000E+00  0.00000000E+00
  0.00000000E+00  0.00000000E+00  0.00000000E+00
  0.00000000E+00  0.00000000E+00  0.00000000E+00
  0.00000000E+00  0.00000000E+00  0.00000000E+00
  0.00000000E+00  0.00000000E+00  0.00000000E+00
  0.00000000E+00  0.00000000E+00  0.00000000E+00
  0.00000000E+00  0.00000000E+00  0.00000000E+00
  0.00000000E+00  0.00000000E+00  0.00000000E+00
  0.00000000E+00  0.00000000E+00  0.00000000E+00
  0.00000000E+00  0.00000000E+00  0.00000000E+00
  0.00000000E+00  0.00000000E+00  0.00000000E+00
  0.00000000E+00  0.00000000E+00  0.00000000E+00
  0.00000000E+00  0.00000000E+00  0.00000000E+00
  0.00000000E+00  0.00000000E+00  0.00000000E+00
  0.00000000E+00  0.00000000E+00  0.00000000E+00
  0.00000000E+00  0.00000000E+00  0.00000000E+00
  0.00000000E+00  0.00000000E+00  0.00000000E+00
  0.00000000E+00  0.00000000E+00  0.00000000E+00
  0.00000000E+00  0.00000000E+00  0.00000000E+00
  0.00000000E+00  0.00000000E+00  0.00000000E+00
  0.00000000E+00  0.00000000E+00  0.00000000E+00
  0.00000000E+00  0.00000000E+00  0.00000000E+00
  0.00000000E+00  0.00000000E+00  0.00000000E+00
  0.00000000E+00  0.00000000E+00  0.00000000E+00
