title                                   
    1.000000000000000     
     9.5339682981150986   -0.0127551430407252    0.0236883064597015
    -0.0131280116620998    9.6617433678332691    0.0088096484366044
     0.0157304900749575    0.0060926925974278    6.4050455357688882
   Cr   Mo   Zr
    12    12    12
Direct
  0.6531738639946568  0.3296026271361456  0.0059204413049377
  0.0182623349578058  0.0091581491078036  0.0049992024030664
  0.3314059842492626  0.6727862654331231 -0.0354629251927931
  0.1639685327554839  0.5204753679103246  0.7367578283662314
  0.8481429956322929  0.5075498495344757  0.7371735560530498
  0.0113573226648019  0.6537492163039559  0.5155467797592151
  0.1768392070155599  0.8171866143098878  0.7467517205426775
  0.1520548038255289  0.5154225550427763  0.2875872664728258
  0.4885219236533349  0.1566438661506149  0.7572984887966845
  0.0037174680037794  0.3501004862096085  0.5068980968787191
  0.3214944172320811  0.6670235946355684  0.5222539389321064
  0.1657677528020051  0.1399750474114010  0.2403928267720003
  0.4952316455715682  0.1657585479271573  0.2418770010106794
  0.1646996432090146  0.1509914241578169  0.7580329272743040
  0.4974205356250105  0.5109924634422363  0.7523330554667411
  0.3358864574812240 -0.0021228328594013 -0.0061287206336063
  0.0112507204204717  0.6603798583418423 -0.0264601664816826
  0.6633770489760370  0.6687683511517534  0.5075964407162832
  0.8420036004141674  0.8180885296969641  0.7493445776206658
  0.4886786194248422  0.8254373962849310  0.7474353133353092
  0.4925648779678016  0.8285104593152689  0.2447978072617094
  0.3347902394231358 -0.0032074042137124  0.5018236947932434
  0.8433975618832822  0.1775584558508626  0.2528202867117368
  0.6644330266191126  0.6684709517947851 -0.0179453388783295
  0.1749989673785496  0.8190369256730656  0.2426149136223849
  0.3146724263629922  0.3271975171632972  0.5017214911204912
  0.3287973286783415  0.3327130101988183 -0.0036572117774825
  0.0071187263889385  0.0001304204758085  0.5069700003901836
  0.6648630752194877  0.0042042722665464 -0.0037094229437527
  0.0192839691938320  0.3405329005410132  0.0112290721155152
  0.8437254689444982  0.8248079800565534  0.2411103820967794
  0.4890261918472678  0.5165372376814745  0.2434890194562782
  0.8313524826393630  0.5028135674916973  0.2467884864303061
  0.6604172021897612  0.0014107199387897  0.5026684872061745
  0.6564596017839011  0.3321732945269107  0.5117524934045756
  0.8408439755708064  0.1891423139098379  0.7673781895927739
 
  0.00000000E+00  0.00000000E+00  0.00000000E+00
  0.00000000E+00  0.00000000E+00  0.00000000E+00
  0.00000000E+00  0.00000000E+00  0.00000000E+00
  0.00000000E+00  0.00000000E+00  0.00000000E+00
  0.00000000E+00  0.00000000E+00  0.00000000E+00
  0.00000000E+00  0.00000000E+00  0.00000000E+00
  0.00000000E+00  0.00000000E+00  0.00000000E+00
  0.00000000E+00  0.00000000E+00  0.00000000E+00
  0.00000000E+00  0.00000000E+00  0.00000000E+00
  0.00000000E+00  0.00000000E+00  0.00000000E+00
  0.00000000E+00  0.00000000E+00  0.00000000E+00
  0.00000000E+00  0.00000000E+00  0.00000000E+00
  0.00000000E+00  0.00000000E+00  0.00000000E+00
  0.00000000E+00  0.00000000E+00  0.00000000E+00
  0.00000000E+00  0.00000000E+00  0.00000000E+00
  0.00000000E+00  0.00000000E+00  0.00000000E+00
  0.00000000E+00  0.00000000E+00  0.00000000E+00
  0.00000000E+00  0.00000000E+00  0.00000000E+00
  0.00000000E+00  0.00000000E+00  0.00000000E+00
  0.00000000E+00  0.00000000E+00  0.00000000E+00
  0.00000000E+00  0.00000000E+00  0.00000000E+00
  0.00000000E+00  0.00000000E+00  0.00000000E+00
  0.00000000E+00  0.00000000E+00  0.00000000E+00
  0.00000000E+00  0.00000000E+00  0.00000000E+00
  0.00000000E+00  0.00000000E+00  0.00000000E+00
  0.00000000E+00  0.00000000E+00  0.00000000E+00
  0.00000000E+00  0.00000000E+00  0.00000000E+00
  0.00000000E+00  0.00000000E+00  0.00000000E+00
  0.00000000E+00  0.00000000E+00  0.00000000E+00
  0.00000000E+00  0.00000000E+00  0.00000000E+00
  0.00000000E+00  0.00000000E+00  0.00000000E+00
  0.00000000E+00  0.00000000E+00  0.00000000E+00
  0.00000000E+00  0.00000000E+00  0.00000000E+00
  0.00000000E+00  0.00000000E+00  0.00000000E+00
  0.00000000E+00  0.00000000E+00  0.00000000E+00
  0.00000000E+00  0.00000000E+00  0.00000000E+00
