title                                   
    1.000000000000000     
     9.7788422477064572   -0.0257429680649303    0.0023256142612363
    -0.0257021473740642    9.7579086372242312    0.0072341210213532
     0.0015606947150043    0.0048697367070711    6.4913945875798733
   Hf   Mo   Ti   W 
     7     4    11    14
Direct
  0.1612976785898711  0.4977980603142069  0.7461927139936164
  0.1602276101644879  0.8422504114739813  0.7433974772088238
  0.3377950246305901  0.6695009103657634  0.0052556195379544
  0.1701512402525362  0.1685087687169157  0.7518401322842188
  0.8343062765563846  0.8279550700808511  0.2504133451837896
  0.1727011260030277  0.1619846397047900  0.2526426631599176
  0.6664528734374943  0.0062833242939830  0.5062265912098185
  0.3386798391971916  0.3430263626402137  0.0030610310785143
  0.8319699760149730  0.5022093784626576  0.2461364870063655
  0.3505229584827878 -0.0123916115177501  0.4980604983015194
  0.6632470867081710  0.6620794103697304  0.5017212014464952
  0.3413802785022191  0.6651218841647012  0.4897389772455103
  0.4898788269234335  0.1785055424557409  0.2435164985920515
  0.8345787310372764  0.4997903471256269  0.7507563438854948
  0.4865326646614033  0.1780736837082936  0.7568880213354727
  0.8402647275595059  0.1840853415363456  0.7640743774507249
  0.6702645636758534  0.3316694868915954  0.4957895985555817
  0.3573302546216334 -0.0193218376736979  0.0050442597810021
  0.1543895189613182  0.8351865444164932  0.2524793048762061
 -0.0241826652076623  0.0089036662855711  0.5089080526989261
  0.6612931595371828 -0.0025403432805590 -0.0052320875281402
  0.5059371874943582  0.4915183688697893  0.2456247407214869
 -0.0100825568077266  0.3330264046851173  0.4897915258161402
 -0.0160796477000088  0.0034234467414999 -0.0012036331058499
  0.8349569621484161  0.1738902183050045  0.2400075251966325
  0.6693134506185593  0.3345242062152151  0.0016277590869979
  0.3416480649863869  0.3456384737212777  0.4959367039317005
  0.8351314469505040  0.8210401955873352  0.7571409824972307
 -0.0053761500824230  0.3366544730612195  0.0115567603500971
  0.5073146149541822  0.4944687011302086  0.7477313789043161
 -0.0036013715154322  0.6628947786885259  0.4973065966537958
 -0.0017399150961862  0.6620892406518261  0.0050367962633597
  0.6648665640195700  0.6638103986277724 -0.0065586653951021
  0.5114816305788985  0.8245733225865437  0.2511740380953655
  0.5048311665487158  0.8281205531640763  0.7445466142662092
  0.1623168025925054  0.4956481774291343  0.2533697694137532
 
  0.00000000E+00  0.00000000E+00  0.00000000E+00
  0.00000000E+00  0.00000000E+00  0.00000000E+00
  0.00000000E+00  0.00000000E+00  0.00000000E+00
  0.00000000E+00  0.00000000E+00  0.00000000E+00
  0.00000000E+00  0.00000000E+00  0.00000000E+00
  0.00000000E+00  0.00000000E+00  0.00000000E+00
  0.00000000E+00  0.00000000E+00  0.00000000E+00
  0.00000000E+00  0.00000000E+00  0.00000000E+00
  0.00000000E+00  0.00000000E+00  0.00000000E+00
  0.00000000E+00  0.00000000E+00  0.00000000E+00
  0.00000000E+00  0.00000000E+00  0.00000000E+00
  0.00000000E+00  0.00000000E+00  0.00000000E+00
  0.00000000E+00  0.00000000E+00  0.00000000E+00
  0.00000000E+00  0.00000000E+00  0.00000000E+00
  0.00000000E+00  0.00000000E+00  0.00000000E+00
  0.00000000E+00  0.00000000E+00  0.00000000E+00
  0.00000000E+00  0.00000000E+00  0.00000000E+00
  0.00000000E+00  0.00000000E+00  0.00000000E+00
  0.00000000E+00  0.00000000E+00  0.00000000E+00
  0.00000000E+00  0.00000000E+00  0.00000000E+00
  0.00000000E+00  0.00000000E+00  0.00000000E+00
  0.00000000E+00  0.00000000E+00  0.00000000E+00
  0.00000000E+00  0.00000000E+00  0.00000000E+00
  0.00000000E+00  0.00000000E+00  0.00000000E+00
  0.00000000E+00  0.00000000E+00  0.00000000E+00
  0.00000000E+00  0.00000000E+00  0.00000000E+00
  0.00000000E+00  0.00000000E+00  0.00000000E+00
  0.00000000E+00  0.00000000E+00  0.00000000E+00
  0.00000000E+00  0.00000000E+00  0.00000000E+00
  0.00000000E+00  0.00000000E+00  0.00000000E+00
  0.00000000E+00  0.00000000E+00  0.00000000E+00
  0.00000000E+00  0.00000000E+00  0.00000000E+00
  0.00000000E+00  0.00000000E+00  0.00000000E+00
  0.00000000E+00  0.00000000E+00  0.00000000E+00
  0.00000000E+00  0.00000000E+00  0.00000000E+00
  0.00000000E+00  0.00000000E+00  0.00000000E+00
