title                                   
    1.000000000000000     
     9.7494532084899177   -0.0146687584694807    0.0210808064625314
    -0.0146698811962209    9.7716869572526033   -0.0448362101518823
     0.0140204630139244   -0.0298522810642094    6.4963600625457909
   Hf   Mo   Nb   Ti   W 
     3    11    15     3     4
Direct
  0.1660381993948294  0.8350259415274143  0.2540807264553199
  0.6753509707353909  0.3361127432721116  0.0097754193301038
  0.5006232465281102  0.1662898963892185  0.7428761895080376
  0.8359453680694625  0.5023993384117376  0.2552684273704255
 -0.0007095545321210  0.0006268740449601  0.5031003262646048
  0.1660984930351685  0.8355138441476002  0.7487103985431696
  0.1694218549172321  0.5040699300020807  0.7508214860266187
  0.4988479206413933  0.8309471821806484  0.7528076067743447
  0.3318870168863447 -0.0002194210388198  0.5013654500892291
  0.1661838968396842  0.1655675031433759  0.7469426990960615
  0.4989127337059689  0.8317845365144354  0.2482525887782327
  0.1630322984372033  0.1644651935265768  0.2523013251320745
  0.6652987646243281  0.6704547018921271  0.5002255612389519
  0.3394309323963101  0.6707453397536457 -0.0011928311808388
  0.3345882113800200  0.6707187592579791  0.5106870727670625
  0.3277048025059326  0.3362939431738938  0.0035160574909038
  0.0005081284022113  0.6627743389172910 -0.0063452058210720
  0.5022263924425848  0.5073269457413064  0.2563150120254579
  0.3303985800252755  0.0021583599047081 -0.0026799893919565
  0.1687892878174914  0.5050474430393791  0.2511628062306394
  0.8328853813306019  0.1596234599420013  0.7384160477182485
  0.8320054556194656  0.5036232835556833  0.7443290878086704
  0.0013158200622137  0.0041807192976827 -0.0081020348120758
  0.0034856343450401  0.3320739009735520  0.4983685452834425
  0.0026972212087355  0.3332693039994659 -0.0016922610374275
  0.8305321076224861  0.8297556581470570  0.7464921083799151
  0.4995006230346230  0.1631357299209863  0.2543810563860068
  0.3265721705635249  0.3362466342393677  0.5019825279151267
  0.8326926848883527  0.8322850726004978  0.2492376179425498
  0.8337543359515768  0.1563244764146772  0.2558977279279518
  0.5033916375375297  0.5080297768879944  0.7514044333975970
  0.6580952273719021 -0.0135240895864279  0.4909798717902634
  0.6723400431471859  0.3374015432842425  0.4904668950951886
  0.6625693237764794 -0.0090556754190601  0.0015952515320848
  0.6678399383543697  0.6666597425258844  0.0034432565256501
 -0.0002551490669064  0.6618670694147260  0.5048087414194368
 
  0.00000000E+00  0.00000000E+00  0.00000000E+00
  0.00000000E+00  0.00000000E+00  0.00000000E+00
  0.00000000E+00  0.00000000E+00  0.00000000E+00
  0.00000000E+00  0.00000000E+00  0.00000000E+00
  0.00000000E+00  0.00000000E+00  0.00000000E+00
  0.00000000E+00  0.00000000E+00  0.00000000E+00
  0.00000000E+00  0.00000000E+00  0.00000000E+00
  0.00000000E+00  0.00000000E+00  0.00000000E+00
  0.00000000E+00  0.00000000E+00  0.00000000E+00
  0.00000000E+00  0.00000000E+00  0.00000000E+00
  0.00000000E+00  0.00000000E+00  0.00000000E+00
  0.00000000E+00  0.00000000E+00  0.00000000E+00
  0.00000000E+00  0.00000000E+00  0.00000000E+00
  0.00000000E+00  0.00000000E+00  0.00000000E+00
  0.00000000E+00  0.00000000E+00  0.00000000E+00
  0.00000000E+00  0.00000000E+00  0.00000000E+00
  0.00000000E+00  0.00000000E+00  0.00000000E+00
  0.00000000E+00  0.00000000E+00  0.00000000E+00
  0.00000000E+00  0.00000000E+00  0.00000000E+00
  0.00000000E+00  0.00000000E+00  0.00000000E+00
  0.00000000E+00  0.00000000E+00  0.00000000E+00
  0.00000000E+00  0.00000000E+00  0.00000000E+00
  0.00000000E+00  0.00000000E+00  0.00000000E+00
  0.00000000E+00  0.00000000E+00  0.00000000E+00
  0.00000000E+00  0.00000000E+00  0.00000000E+00
  0.00000000E+00  0.00000000E+00  0.00000000E+00
  0.00000000E+00  0.00000000E+00  0.00000000E+00
  0.00000000E+00  0.00000000E+00  0.00000000E+00
  0.00000000E+00  0.00000000E+00  0.00000000E+00
  0.00000000E+00  0.00000000E+00  0.00000000E+00
  0.00000000E+00  0.00000000E+00  0.00000000E+00
  0.00000000E+00  0.00000000E+00  0.00000000E+00
  0.00000000E+00  0.00000000E+00  0.00000000E+00
  0.00000000E+00  0.00000000E+00  0.00000000E+00
  0.00000000E+00  0.00000000E+00  0.00000000E+00
  0.00000000E+00  0.00000000E+00  0.00000000E+00
