title                                   
    1.000000000000000     
    10.1074219459548598    0.0145119226245494   -0.0152313866896839
     0.0148774879122084   10.2624599149532099    0.0299634032305996
    -0.0101251725566077    0.0197560556498310    6.7507791632549647
   Hf   Nb   Ta   W    Zr
    12    15     6     2     1
Direct
 -0.0126899551898456  0.6750360710607571  0.5225254274774189
  0.1644185080587316  0.8362144180500122  0.2444259033412194
  0.8392802553921398  0.8488820701327443  0.2303019270098728
  0.8309768200571463  0.4733671195848979  0.7505412790439119
  0.3355059313276253  0.3174031404961999  0.0154049111443154
  0.3334151870958294  0.3129337901738033  0.4866126894765628
  0.1668552311110286  0.5148367396412552  0.2465640269943803
  0.4951028961829992  0.4992590932109656  0.7445847349605984
  0.1562635745322116  0.1602222173155323  0.7561698683933488
  0.4985171291527940  0.5031246380340870  0.2566706839485553
  0.1723725228341217  0.5032839298633507  0.7514680623240204
  0.6711512695521566  0.6773652109261612  0.5026380776830116
  0.3392778910995569  0.0018911423197905 -0.0005192763338798
  0.1547721525692170  0.1511751113171873  0.2447062028019201
  0.5121756366995497  0.1558525300246112  0.2481552909547074
  0.6665749355617827  0.3166723086536499  0.4951198955241829
  0.5102594972204298  0.1575359918888302  0.7530867664735262
  0.8342270123779306  0.1656259768897472  0.7537022615889429
  0.3407499932099300  0.6855459513598511 -0.0075188759727690
  0.3367576138889162  0.0034553427421625  0.5011759935070328
  0.3414614932949246  0.6891076161612816  0.5060005847782189
  0.6655992781347910  0.3203835369127058  0.0067138000999194
  0.8326924272244602  0.1618184022049818  0.2457991957533451
  0.4968825969632977  0.8401643462089027  0.2467566762556758
 -0.0041813956606291  0.3234182379036183  0.4851180205321812
  0.0007487176844523  0.3285527937879580  0.0157746479368611
  0.1683743883488799  0.8434566785274427  0.7556763277659663
  0.4993498998900209  0.8438996202245056  0.7530036378433625
 -0.0090131851484897  0.6693462991790642 -0.0235145586581149
  0.8323569802459583  0.8575836027358462  0.7684782976368535
  0.6656626717136555  0.0002756788102876  0.5013601780409307
 -0.0044926092589200  0.0009653919156089  0.5031618764491875
  0.8353035679791763  0.4844680421262948  0.2495970761729386
 -0.0011531827800462  0.0044943807560705 -0.0035231085390757
  0.6621179149662322  0.0044600838736498 -0.0036754706760400
  0.6723263336679857  0.6679224949861843 -0.0025430317330902
 
  0.00000000E+00  0.00000000E+00  0.00000000E+00
  0.00000000E+00  0.00000000E+00  0.00000000E+00
  0.00000000E+00  0.00000000E+00  0.00000000E+00
  0.00000000E+00  0.00000000E+00  0.00000000E+00
  0.00000000E+00  0.00000000E+00  0.00000000E+00
  0.00000000E+00  0.00000000E+00  0.00000000E+00
  0.00000000E+00  0.00000000E+00  0.00000000E+00
  0.00000000E+00  0.00000000E+00  0.00000000E+00
  0.00000000E+00  0.00000000E+00  0.00000000E+00
  0.00000000E+00  0.00000000E+00  0.00000000E+00
  0.00000000E+00  0.00000000E+00  0.00000000E+00
  0.00000000E+00  0.00000000E+00  0.00000000E+00
  0.00000000E+00  0.00000000E+00  0.00000000E+00
  0.00000000E+00  0.00000000E+00  0.00000000E+00
  0.00000000E+00  0.00000000E+00  0.00000000E+00
  0.00000000E+00  0.00000000E+00  0.00000000E+00
  0.00000000E+00  0.00000000E+00  0.00000000E+00
  0.00000000E+00  0.00000000E+00  0.00000000E+00
  0.00000000E+00  0.00000000E+00  0.00000000E+00
  0.00000000E+00  0.00000000E+00  0.00000000E+00
  0.00000000E+00  0.00000000E+00  0.00000000E+00
  0.00000000E+00  0.00000000E+00  0.00000000E+00
  0.00000000E+00  0.00000000E+00  0.00000000E+00
  0.00000000E+00  0.00000000E+00  0.00000000E+00
  0.00000000E+00  0.00000000E+00  0.00000000E+00
  0.00000000E+00  0.00000000E+00  0.00000000E+00
  0.00000000E+00  0.00000000E+00  0.00000000E+00
  0.00000000E+00  0.00000000E+00  0.00000000E+00
  0.00000000E+00  0.00000000E+00  0.00000000E+00
  0.00000000E+00  0.00000000E+00  0.00000000E+00
  0.00000000E+00  0.00000000E+00  0.00000000E+00
  0.00000000E+00  0.00000000E+00  0.00000000E+00
  0.00000000E+00  0.00000000E+00  0.00000000E+00
  0.00000000E+00  0.00000000E+00  0.00000000E+00
  0.00000000E+00  0.00000000E+00  0.00000000E+00
  0.00000000E+00  0.00000000E+00  0.00000000E+00
