title                                   
    1.000000000000000     
     9.7871953530974025   -0.0288615502810570   -0.0218756040523992
    -0.0287795904618316    9.8168415736981363   -0.0082313172990033
    -0.0146010377025882   -0.0055347470178100    6.5512235050523051
   Hf   Mo   Nb   Ta   Ti
     1     6     2    15    12
Direct
  0.3309711165792302  0.0074220786519001  0.5017495729117927
  0.1668777090296880  0.1677010696984823  0.7509531432174560
 -0.0023173613198644  0.6630050620944666  0.4991148144375484
  0.6681569867225366  0.3321892349063204  0.0015073042769685
  0.5073297498782203  0.1736886929442593  0.2472013666943922
 -0.0013028740989601  0.6630526244764098 -0.0016322362887499
  0.8260887941435912  0.1655022387168902  0.7516025458795428
  0.3392990084429753  0.6660397657620303  0.4979181391884757
  0.3362594162565793  0.6666943252697840  0.0026414373370358
  0.8356347253493824  0.5050915087844828  0.7509904387866626
  0.5015417252130738  0.8300255764264153  0.2485474428622616
  0.1550611014987897  0.8247040862815080  0.2488396131488702
  0.8357625218598187  0.4981117435955905  0.2442000847618626
  0.1649737850422705  0.5113005907174368  0.7467614803823510
  0.6692466055524990  0.0040332243277054  0.4991369238079308
  0.6689120915323246 -0.0009739405299347  0.0028009713966099
  0.5026640850786617  0.4906134131819574  0.7585545683246853
  0.6673207230834118  0.6694319793263940  0.0006924496196690
  0.1529756860276639  0.1731645314784144  0.2482283982825902
  0.0001676200825155  0.0082700726294380  0.5087495842176808
  0.6689137523876891  0.3312487858619993  0.4988183659967850
  0.3305205742293921  0.3278314374342167  0.4992136945598473
  0.5027053174367783  0.8349345431628492  0.7546955449579614
  0.0008595815865825  0.0079938032647382 -0.0116388501677013
  0.6637473694322410  0.6630409324946870  0.5002187607795319
  0.8447462007813441  0.8250521908971895  0.7489850193436606
  0.3242648746326782  0.3259300107355034  0.0015762652228280
  0.8435013576024712  0.8290524211039424  0.2498694202815946
  0.1566964833556041  0.8195712441096608  0.7501147910584397
  0.0045019588223554  0.3265639463155769 -0.0266043061850803
  0.8350919827651037  0.1728681821681366  0.2429499718619113
  0.5076346144058513  0.1772800622248301  0.7645346769542009
  0.5013284565348043  0.4981624465512896  0.2430387092213467
 -0.0017230398009799  0.3265733727745975  0.5202799011087955
  0.1601034834526281  0.5063565089124468  0.2502803266588076
  0.3314838164210475  0.0084722332483824  0.0051096651014368
 
  0.00000000E+00  0.00000000E+00  0.00000000E+00
  0.00000000E+00  0.00000000E+00  0.00000000E+00
  0.00000000E+00  0.00000000E+00  0.00000000E+00
  0.00000000E+00  0.00000000E+00  0.00000000E+00
  0.00000000E+00  0.00000000E+00  0.00000000E+00
  0.00000000E+00  0.00000000E+00  0.00000000E+00
  0.00000000E+00  0.00000000E+00  0.00000000E+00
  0.00000000E+00  0.00000000E+00  0.00000000E+00
  0.00000000E+00  0.00000000E+00  0.00000000E+00
  0.00000000E+00  0.00000000E+00  0.00000000E+00
  0.00000000E+00  0.00000000E+00  0.00000000E+00
  0.00000000E+00  0.00000000E+00  0.00000000E+00
  0.00000000E+00  0.00000000E+00  0.00000000E+00
  0.00000000E+00  0.00000000E+00  0.00000000E+00
  0.00000000E+00  0.00000000E+00  0.00000000E+00
  0.00000000E+00  0.00000000E+00  0.00000000E+00
  0.00000000E+00  0.00000000E+00  0.00000000E+00
  0.00000000E+00  0.00000000E+00  0.00000000E+00
  0.00000000E+00  0.00000000E+00  0.00000000E+00
  0.00000000E+00  0.00000000E+00  0.00000000E+00
  0.00000000E+00  0.00000000E+00  0.00000000E+00
  0.00000000E+00  0.00000000E+00  0.00000000E+00
  0.00000000E+00  0.00000000E+00  0.00000000E+00
  0.00000000E+00  0.00000000E+00  0.00000000E+00
  0.00000000E+00  0.00000000E+00  0.00000000E+00
  0.00000000E+00  0.00000000E+00  0.00000000E+00
  0.00000000E+00  0.00000000E+00  0.00000000E+00
  0.00000000E+00  0.00000000E+00  0.00000000E+00
  0.00000000E+00  0.00000000E+00  0.00000000E+00
  0.00000000E+00  0.00000000E+00  0.00000000E+00
  0.00000000E+00  0.00000000E+00  0.00000000E+00
  0.00000000E+00  0.00000000E+00  0.00000000E+00
  0.00000000E+00  0.00000000E+00  0.00000000E+00
  0.00000000E+00  0.00000000E+00  0.00000000E+00
  0.00000000E+00  0.00000000E+00  0.00000000E+00
  0.00000000E+00  0.00000000E+00  0.00000000E+00
