title                                   
    1.000000000000000     
    10.1171322265283479    0.0156696500368125    0.0230660538652354
     0.0156607639452370   10.0756309406583338   -0.0585666084422994
     0.0156671266520220   -0.0388050742020609    6.8784392027784902
   Mo   Nb   Ti   W    Zr
     3    11     4     3    15
Direct
  0.8373040795776668  0.4959103487604193  0.7478546570746292
  0.8288627732538457  0.8303950809404596  0.2521009954430543
  0.6746414187949827  0.6764077897159813  0.4976100298414649
  0.1611979831026936  0.1610082530514795  0.7498193118797618
  0.0035984837025743 -0.0087826449540882 -0.0006190830912544
  0.1675684585337511  0.1636460545344780  0.2536012893269567
  0.8219993931247790  0.8369800233801568  0.7401589110021152
  0.0120533581150481  0.3390824889375324 -0.0185026095892962
  0.1752427586640062  0.8433167591700176  0.7410053641835940
  0.0013221521882028  0.3374479178722700  0.5258344703916580
  0.1701888713940047  0.8403662350000809  0.2525627748828977
  0.1753231618878607  0.4987619370871880  0.7340674870150774
  0.3230046348710644  0.3289740036190846  0.5088049554491937
  0.3264230629810110 -0.0052464267057940  0.0100598627739870
  0.8591890154109063  0.1628830100766893  0.7675603860546079
  0.4732656267021126  0.1536540613584517  0.2730920791461172
 -0.0022793704131050 -0.0102482241367583  0.4955806619856107
  0.4956667166371919  0.5174014960756583  0.7122492735820610
  0.3276113058155281  0.6771538477350569  0.4957451219134965
  0.3166917806649547 -0.0057041745092125  0.4852285085183016
  0.4880186074244903  0.8340123212335108  0.2627731525866552
  0.4794767094631898  0.1485892037204848  0.7278236092063276
  0.3413393576289372  0.3335978652089180 -0.0044238245237547
  0.6760120887862279 -0.0043573705612181  0.4773996121753517
  0.8362779263333024  0.4974508697876130  0.2606671363968198
 -0.0059618482578836  0.6726772100231930 -0.0105362467341113
  0.6647379325923044 -0.0037904219851450  0.0141072602505126
  0.3387609229022338  0.6674273549868593  0.0014838697188062
  0.8584648193691153  0.1776061966444383  0.2382147034658960
  0.6698213496160308  0.6677325812935515 -0.0012124828258662
  0.1675872939408243  0.4984298813157068  0.2650256231022452
 -0.0046690597234807  0.6777205184553109  0.5092766612518723
  0.4976466477087201  0.8281893667372531  0.7307394780148612
  0.6644429082906934  0.3350089289213508 -0.0117693046924901
  0.5034218144420093  0.5094542418865098  0.2867183747855994
  0.6757468644742036  0.3268434153225123  0.5298979300372414
 
  0.00000000E+00  0.00000000E+00  0.00000000E+00
  0.00000000E+00  0.00000000E+00  0.00000000E+00
  0.00000000E+00  0.00000000E+00  0.00000000E+00
  0.00000000E+00  0.00000000E+00  0.00000000E+00
  0.00000000E+00  0.00000000E+00  0.00000000E+00
  0.00000000E+00  0.00000000E+00  0.00000000E+00
  0.00000000E+00  0.00000000E+00  0.00000000E+00
  0.00000000E+00  0.00000000E+00  0.00000000E+00
  0.00000000E+00  0.00000000E+00  0.00000000E+00
  0.00000000E+00  0.00000000E+00  0.00000000E+00
  0.00000000E+00  0.00000000E+00  0.00000000E+00
  0.00000000E+00  0.00000000E+00  0.00000000E+00
  0.00000000E+00  0.00000000E+00  0.00000000E+00
  0.00000000E+00  0.00000000E+00  0.00000000E+00
  0.00000000E+00  0.00000000E+00  0.00000000E+00
  0.00000000E+00  0.00000000E+00  0.00000000E+00
  0.00000000E+00  0.00000000E+00  0.00000000E+00
  0.00000000E+00  0.00000000E+00  0.00000000E+00
  0.00000000E+00  0.00000000E+00  0.00000000E+00
  0.00000000E+00  0.00000000E+00  0.00000000E+00
  0.00000000E+00  0.00000000E+00  0.00000000E+00
  0.00000000E+00  0.00000000E+00  0.00000000E+00
  0.00000000E+00  0.00000000E+00  0.00000000E+00
  0.00000000E+00  0.00000000E+00  0.00000000E+00
  0.00000000E+00  0.00000000E+00  0.00000000E+00
  0.00000000E+00  0.00000000E+00  0.00000000E+00
  0.00000000E+00  0.00000000E+00  0.00000000E+00
  0.00000000E+00  0.00000000E+00  0.00000000E+00
  0.00000000E+00  0.00000000E+00  0.00000000E+00
  0.00000000E+00  0.00000000E+00  0.00000000E+00
  0.00000000E+00  0.00000000E+00  0.00000000E+00
  0.00000000E+00  0.00000000E+00  0.00000000E+00
  0.00000000E+00  0.00000000E+00  0.00000000E+00
  0.00000000E+00  0.00000000E+00  0.00000000E+00
  0.00000000E+00  0.00000000E+00  0.00000000E+00
  0.00000000E+00  0.00000000E+00  0.00000000E+00
