title                                   
    1.000000000000000     
     9.3503986782959654   -0.0257096722238874    0.0020457949674592
    -0.0257048431928567    9.3502000278323969   -0.0003365083829432
     0.0013659466268356   -0.0002331511307032    6.2334605305620752
   Cr   Mo   Nb   W    Zr
    12     2     6    15     1
Direct
 -0.0000279684484728  0.3328978208756770  0.5020277927323259
 -0.0056083004593113  0.6642357204732653 -0.0024124982249318
  0.4982568093907245  0.1630558301692035  0.2527066408599400
  0.6695722038724531  0.6699696760137062  0.0004802150391732
  0.8235860338042811  0.8272428250990274  0.2447111084888454
  0.3356464384332541  0.6673761645863953  0.5031113157581226
  0.6672886780268038  0.6696459165547650  0.4998978897992651
 -0.0011228979186420  0.3320476139441902 -0.0038128777242374
  0.4977977888170297  0.1634909517739832  0.7491194902910993
  0.8312240371122476  0.1720043718030165  0.7538855486437532
  0.3389258052848012  0.0041696674279251  0.5013455958911721
  0.1716721643643510  0.1704046316266586  0.2482352284498159
  0.8264614649989734  0.8265329018251292  0.7559682936095431
  0.3375777799374163  0.0048476561553831  0.0032494515170458
  0.1605815483850996  0.4945493512123507  0.2488098928721066
  0.5027318015878732  0.5052398535588017  0.2535911341842225
  0.6672751827585863  0.3284498130973551  0.5036574925943094
 -0.0027662354616446  0.0019414243850927  0.0007912537081447
 -0.0051399642635470  0.6682403076002819  0.4986457308729738
  0.1736894056944583  0.8318227177156929  0.2514874078651106
  0.6649915976166929  0.0020195597088350  0.5000612781846755
  0.8335627655483144  0.5036401612316327  0.2431244041951995
  0.3350932330719079  0.3267412011729141  0.0010143605028046
  0.8337898109013957  0.1736008487804566  0.2453992558939594
  0.5000302405191687  0.8326131795171803  0.7453890267463216
  0.1625408778013557  0.4967575280120065  0.7499318141919463
  0.6659677130653446  0.0018896220792601 -0.0006591421784701
  0.1739735123019641  0.8305726727333251  0.7504271040507110
  0.8354636588185225  0.5004456184554249  0.7546161293067392
  0.3350767291355090  0.6658951465970202 -0.0023730465871474
  0.6669582721761430  0.3293403638132161 -0.0037449320297070
  0.5026774669022618  0.8331020233860973  0.2547398843139758
  0.1690829096516128  0.1706477332013472  0.7513529641934313
  0.3345169257018918  0.3249192892660946  0.4988936163544767
  0.5013254929977912  0.5048840209609522  0.7478710138845612
 -0.0026729821266114  0.0047658151863366  0.4984601617487215
 
  0.00000000E+00  0.00000000E+00  0.00000000E+00
  0.00000000E+00  0.00000000E+00  0.00000000E+00
  0.00000000E+00  0.00000000E+00  0.00000000E+00
  0.00000000E+00  0.00000000E+00  0.00000000E+00
  0.00000000E+00  0.00000000E+00  0.00000000E+00
  0.00000000E+00  0.00000000E+00  0.00000000E+00
  0.00000000E+00  0.00000000E+00  0.00000000E+00
  0.00000000E+00  0.00000000E+00  0.00000000E+00
  0.00000000E+00  0.00000000E+00  0.00000000E+00
  0.00000000E+00  0.00000000E+00  0.00000000E+00
  0.00000000E+00  0.00000000E+00  0.00000000E+00
  0.00000000E+00  0.00000000E+00  0.00000000E+00
  0.00000000E+00  0.00000000E+00  0.00000000E+00
  0.00000000E+00  0.00000000E+00  0.00000000E+00
  0.00000000E+00  0.00000000E+00  0.00000000E+00
  0.00000000E+00  0.00000000E+00  0.00000000E+00
  0.00000000E+00  0.00000000E+00  0.00000000E+00
  0.00000000E+00  0.00000000E+00  0.00000000E+00
  0.00000000E+00  0.00000000E+00  0.00000000E+00
  0.00000000E+00  0.00000000E+00  0.00000000E+00
  0.00000000E+00  0.00000000E+00  0.00000000E+00
  0.00000000E+00  0.00000000E+00  0.00000000E+00
  0.00000000E+00  0.00000000E+00  0.00000000E+00
  0.00000000E+00  0.00000000E+00  0.00000000E+00
  0.00000000E+00  0.00000000E+00  0.00000000E+00
  0.00000000E+00  0.00000000E+00  0.00000000E+00
  0.00000000E+00  0.00000000E+00  0.00000000E+00
  0.00000000E+00  0.00000000E+00  0.00000000E+00
  0.00000000E+00  0.00000000E+00  0.00000000E+00
  0.00000000E+00  0.00000000E+00  0.00000000E+00
  0.00000000E+00  0.00000000E+00  0.00000000E+00
  0.00000000E+00  0.00000000E+00  0.00000000E+00
  0.00000000E+00  0.00000000E+00  0.00000000E+00
  0.00000000E+00  0.00000000E+00  0.00000000E+00
  0.00000000E+00  0.00000000E+00  0.00000000E+00
  0.00000000E+00  0.00000000E+00  0.00000000E+00
