title                                   
    1.000000000000000     
    10.0508391391661718    0.1062110261860798    0.0392329763398703
     0.1069725320757876   10.0677761667583088   -0.0500627802611713
     0.0262889501772234   -0.0332502424726480    6.7949192596155594
   Hf   Mo   Nb   Ta   Zr
     7     8     7     7     7
Direct
  0.8345362171688797  0.1529300776029787  0.7266210373647800
  0.1593475048577586  0.8302387565110525  0.2633533925074170
  0.8340487940584618  0.8387087261114152  0.2613886786555946
  0.4910563205729233  0.4977093398796599  0.7822888583872090
  0.6836996938115009  0.3342028532636375  0.0039096959716083
  0.5024171255207618  0.1589145958684800  0.2525690577276886
  0.6753999441455463  0.3400205467173586  0.4921223013058892
  0.0006507601488283  0.0005022616516171  0.4906144418971795
  0.8401081361526832  0.5025932302071378  0.7569135155551413
  0.6609841654570551 -0.0039413184818724  0.4960103427645495
  0.1671192815256107  0.8283778780174504  0.7417386511929335
  0.1666653376545711  0.4975933192944531  0.7610294644848826
  0.5032594683502238  0.8356058025205830  0.2536575279281497
  0.8365378247020203  0.1610242699205807  0.2534035842855932
  0.5017812833896984  0.8289778832002770  0.7516499465290677
  0.3322087394077858  0.6761054854869656 -0.0041573509023251
 -0.0052672105156267  0.3431609632314204  0.5024745587668605
  0.6628884112367042 -0.0059523005953332 -0.0061780611980839
  0.3316879468477011  0.6737507661768514  0.5160706370020200
  0.0039238749517509  0.6662611425868249 -0.0303965526951665
  0.5135207796834526  0.1558367128242433  0.7369187020118012
  0.3224853077525848  0.3301681373849079 -0.0016919129385228
 -0.0058534436633684  0.3324478851780086 -0.0035702428295610
  0.8265425108950635  0.8464894016831425  0.7373918462874303
  0.0068147069532608  0.6641743431583725  0.5396281568933671
  0.1630981227581323  0.1651179687161876  0.2630540585491633
  0.3411360852563005 -0.0164202812480485  0.5071228378093124
  0.4865694391628348  0.5055193917209773  0.2296350542374895
  0.6608822975853332  0.6761110627650138 -0.0030351351208206
  0.1570761630182369  0.1645911395797822  0.7264522018143954
  0.3365453478658082 -0.0120512019376389 -0.0119592271501952
  0.0008417288242740  0.0041264833997514  0.0008550421716413
  0.3325679223534554  0.3370562121452149  0.5086437042165991
  0.8490884920503363  0.5177877475618697  0.2476669721655800
  0.1676539157964635  0.5054568218608760  0.2486925975499702
  0.6579770042629933  0.6668038960358018  0.5091116168013605
 
  0.00000000E+00  0.00000000E+00  0.00000000E+00
  0.00000000E+00  0.00000000E+00  0.00000000E+00
  0.00000000E+00  0.00000000E+00  0.00000000E+00
  0.00000000E+00  0.00000000E+00  0.00000000E+00
  0.00000000E+00  0.00000000E+00  0.00000000E+00
  0.00000000E+00  0.00000000E+00  0.00000000E+00
  0.00000000E+00  0.00000000E+00  0.00000000E+00
  0.00000000E+00  0.00000000E+00  0.00000000E+00
  0.00000000E+00  0.00000000E+00  0.00000000E+00
  0.00000000E+00  0.00000000E+00  0.00000000E+00
  0.00000000E+00  0.00000000E+00  0.00000000E+00
  0.00000000E+00  0.00000000E+00  0.00000000E+00
  0.00000000E+00  0.00000000E+00  0.00000000E+00
  0.00000000E+00  0.00000000E+00  0.00000000E+00
  0.00000000E+00  0.00000000E+00  0.00000000E+00
  0.00000000E+00  0.00000000E+00  0.00000000E+00
  0.00000000E+00  0.00000000E+00  0.00000000E+00
  0.00000000E+00  0.00000000E+00  0.00000000E+00
  0.00000000E+00  0.00000000E+00  0.00000000E+00
  0.00000000E+00  0.00000000E+00  0.00000000E+00
  0.00000000E+00  0.00000000E+00  0.00000000E+00
  0.00000000E+00  0.00000000E+00  0.00000000E+00
  0.00000000E+00  0.00000000E+00  0.00000000E+00
  0.00000000E+00  0.00000000E+00  0.00000000E+00
  0.00000000E+00  0.00000000E+00  0.00000000E+00
  0.00000000E+00  0.00000000E+00  0.00000000E+00
  0.00000000E+00  0.00000000E+00  0.00000000E+00
  0.00000000E+00  0.00000000E+00  0.00000000E+00
  0.00000000E+00  0.00000000E+00  0.00000000E+00
  0.00000000E+00  0.00000000E+00  0.00000000E+00
  0.00000000E+00  0.00000000E+00  0.00000000E+00
  0.00000000E+00  0.00000000E+00  0.00000000E+00
  0.00000000E+00  0.00000000E+00  0.00000000E+00
  0.00000000E+00  0.00000000E+00  0.00000000E+00
  0.00000000E+00  0.00000000E+00  0.00000000E+00
  0.00000000E+00  0.00000000E+00  0.00000000E+00
