title                                   
    1.000000000000000     
     9.5590249293770508    0.0016106579298301   -0.0019823112889667
     0.0016106128395249    9.5509614447535771   -0.0006451692297693
    -0.0013211277576898   -0.0004299185464631    6.3623780140152730
   Cr   Mo   Nb   Ta   W 
     2    12     6     1    15
Direct
 -0.0018814202647386 -0.0005459247195491 -0.0025760293225312
  0.5025072328648250  0.8341938775786201  0.2461997934145633
  0.1677833015250177  0.4998822416140815  0.2509753105617147
  0.6663511186856200  0.3321781199994309  0.5009096725057135
  0.5010382379898249  0.1667739724157966  0.7501895960530007
  0.3342044439136951  0.3326715956184289  0.4993666424464867
  0.8323753009174266  0.1645073553271967  0.2486277167844509
  0.8325475209501435  0.5011476277181013  0.7496872903948990
  0.6652840990001827  0.6690336064824260  0.4990735703745561
 -0.0013363905313393  0.6678622097506838  0.5012253477568925
  0.1675041049199713  0.1654366645192702  0.2482826713945493
 -0.0020669994387563  0.6685797050957307 -0.0002916180859836
  0.3367208386747662  0.6686719715183282  0.0012885529037902
  0.5021736372937864  0.8334228405036320  0.7519185847751135
  0.8317522680947452  0.5018185528732850  0.2526726889437031
  0.1637819535216283  0.8338546402977928  0.2439995072699880
  0.3361006235773259 -0.0002929934695587  0.4984364912203845
  0.3374130715985316  0.6694838548067057  0.4963851455805732
 -0.0003956079885904  0.3298000037226243  0.0030640008152834
 -0.0015504717694617  0.0013677223682455  0.4988643461667570
  0.1676607368624143  0.5010424072469148  0.7511017519519266
  0.5014866108963165  0.1669284072321621  0.2489756518683216
 -0.0002648662792932  0.3307025795793372  0.5014152096969190
  0.6641478628853279  0.6698287342772712  0.0006147833362865
  0.1637191142728344  0.8341505534644710  0.7547290601943581
  0.3356685792879052 -0.0001917691564640  0.0005115300952403
  0.6654191779052968  0.3321069593174038 -0.0008891618453552
  0.8333548775353486  0.8343768319618964  0.7525726627238073
  0.1660697824050076  0.1658485936469273  0.7535139094647230
  0.5016269577167737  0.5000109904269870  0.2494741223505345
  0.5006035297987889  0.4998190254089213  0.7499103093785661
  0.8318494292190227  0.8336288203886144  0.2472049431333380
  0.6658699423040541 -0.0016490986288920  0.4979955779111385
  0.6654977596204134 -0.0018612306922610  0.0012016248238619
  0.3346746438831084  0.3315970003621870  0.0016689952517525
  0.8323089981520784  0.1638135511432514  0.7516997477106766
 
  0.00000000E+00  0.00000000E+00  0.00000000E+00
  0.00000000E+00  0.00000000E+00  0.00000000E+00
  0.00000000E+00  0.00000000E+00  0.00000000E+00
  0.00000000E+00  0.00000000E+00  0.00000000E+00
  0.00000000E+00  0.00000000E+00  0.00000000E+00
  0.00000000E+00  0.00000000E+00  0.00000000E+00
  0.00000000E+00  0.00000000E+00  0.00000000E+00
  0.00000000E+00  0.00000000E+00  0.00000000E+00
  0.00000000E+00  0.00000000E+00  0.00000000E+00
  0.00000000E+00  0.00000000E+00  0.00000000E+00
  0.00000000E+00  0.00000000E+00  0.00000000E+00
  0.00000000E+00  0.00000000E+00  0.00000000E+00
  0.00000000E+00  0.00000000E+00  0.00000000E+00
  0.00000000E+00  0.00000000E+00  0.00000000E+00
  0.00000000E+00  0.00000000E+00  0.00000000E+00
  0.00000000E+00  0.00000000E+00  0.00000000E+00
  0.00000000E+00  0.00000000E+00  0.00000000E+00
  0.00000000E+00  0.00000000E+00  0.00000000E+00
  0.00000000E+00  0.00000000E+00  0.00000000E+00
  0.00000000E+00  0.00000000E+00  0.00000000E+00
  0.00000000E+00  0.00000000E+00  0.00000000E+00
  0.00000000E+00  0.00000000E+00  0.00000000E+00
  0.00000000E+00  0.00000000E+00  0.00000000E+00
  0.00000000E+00  0.00000000E+00  0.00000000E+00
  0.00000000E+00  0.00000000E+00  0.00000000E+00
  0.00000000E+00  0.00000000E+00  0.00000000E+00
  0.00000000E+00  0.00000000E+00  0.00000000E+00
  0.00000000E+00  0.00000000E+00  0.00000000E+00
  0.00000000E+00  0.00000000E+00  0.00000000E+00
  0.00000000E+00  0.00000000E+00  0.00000000E+00
  0.00000000E+00  0.00000000E+00  0.00000000E+00
  0.00000000E+00  0.00000000E+00  0.00000000E+00
  0.00000000E+00  0.00000000E+00  0.00000000E+00
  0.00000000E+00  0.00000000E+00  0.00000000E+00
  0.00000000E+00  0.00000000E+00  0.00000000E+00
  0.00000000E+00  0.00000000E+00  0.00000000E+00
