title                                   
    1.000000000000000     
     9.7059061623503577   -0.0334169579530109   -0.0002393141677055
    -0.0339447302847309    9.6202199418966803   -0.0158626020866921
    -0.0002197737679588   -0.0105818483811651    6.4204756221761388
   Cr   Mo   Ta   W    Zr
     7     8     7     7     7
Direct
  0.8290057286620894  0.8407841717680841  0.2621501543042883
  0.6743684594779492 -0.0022493444242054  0.5029550359093407
  0.8266438942289660  0.5003967806326205  0.7499531985941830
  0.3198549646410625  0.6801341934643722 -0.0115677003375546
  0.6822786322763500  0.6736789811453777  0.5039662134869345
  0.1611513257135680  0.8324829993414666  0.7442727937883710
 -0.0082151234498706 -0.0078922715998725  0.5017452006637788
  0.5060040913819774  0.1672180308374144  0.7478864664322309
  0.6732591938737594  0.3315228131775809 -0.0033513899335004
  0.6717874612676076 -0.0017994022724629 -0.0070134137687181
 -0.0097802759199804  0.3362599560639081 -0.0060015449378044
 -0.0061459322523060 -0.0082250055666981 -0.0042367449233763
  0.5116306722249385  0.8288728015285831  0.7411927333584901
  0.8278359513780015  0.5014504039506025  0.2532688306266784
  0.6830700870472249  0.6698265327446745 -0.0038205708833073
  0.1547171057193099  0.1663386750408622  0.7478192578432997
  0.8305747353036192  0.1586942634975932  0.2521818843975971
  0.5099858463553576  0.1656248659961811  0.2527062578767247
 -0.0063696171369778  0.6740430667581889  0.5034568671084729
  0.1748540685424025  0.4987498505771014  0.7532958613431634
 -0.0129713782516423  0.3440516987609383  0.5076339693193259
  0.3323247605341700 -0.0064161070981013  0.5123756969907044
  0.8286391820692695  0.8417919509935251  0.7370158261378175
  0.1609449118200054  0.8345859768686180  0.2581024892013442
  0.3391452216590501  0.3207055210812848 -0.0076987681765246
  0.3239918699463186  0.6803134198355705  0.5129463788280593
  0.3379293847597781  0.3238006659708376  0.5078439278636167
  0.6748604533882766  0.3318681765217618  0.5073688418231055
  0.8299589181896144  0.1621183618225025  0.7490331467731003
  0.5115676708814747  0.8260185519341777  0.2510653464427291
  0.1752265580032825  0.5002224098551006  0.2458051680928920
  0.1572833637827893  0.1635854232554711  0.2499535244620911
  0.3322540679907792 -0.0117960368282117 -0.0141335805335016
  0.5032257971642303  0.5034061275495596  0.2513015275761145
  0.5038358662856219  0.5073952218285352  0.7534286682589486
 -0.0047279175580669  0.6724362749870556 -0.0029015540091149
 
  0.00000000E+00  0.00000000E+00  0.00000000E+00
  0.00000000E+00  0.00000000E+00  0.00000000E+00
  0.00000000E+00  0.00000000E+00  0.00000000E+00
  0.00000000E+00  0.00000000E+00  0.00000000E+00
  0.00000000E+00  0.00000000E+00  0.00000000E+00
  0.00000000E+00  0.00000000E+00  0.00000000E+00
  0.00000000E+00  0.00000000E+00  0.00000000E+00
  0.00000000E+00  0.00000000E+00  0.00000000E+00
  0.00000000E+00  0.00000000E+00  0.00000000E+00
  0.00000000E+00  0.00000000E+00  0.00000000E+00
  0.00000000E+00  0.00000000E+00  0.00000000E+00
  0.00000000E+00  0.00000000E+00  0.00000000E+00
  0.00000000E+00  0.00000000E+00  0.00000000E+00
  0.00000000E+00  0.00000000E+00  0.00000000E+00
  0.00000000E+00  0.00000000E+00  0.00000000E+00
  0.00000000E+00  0.00000000E+00  0.00000000E+00
  0.00000000E+00  0.00000000E+00  0.00000000E+00
  0.00000000E+00  0.00000000E+00  0.00000000E+00
  0.00000000E+00  0.00000000E+00  0.00000000E+00
  0.00000000E+00  0.00000000E+00  0.00000000E+00
  0.00000000E+00  0.00000000E+00  0.00000000E+00
  0.00000000E+00  0.00000000E+00  0.00000000E+00
  0.00000000E+00  0.00000000E+00  0.00000000E+00
  0.00000000E+00  0.00000000E+00  0.00000000E+00
  0.00000000E+00  0.00000000E+00  0.00000000E+00
  0.00000000E+00  0.00000000E+00  0.00000000E+00
  0.00000000E+00  0.00000000E+00  0.00000000E+00
  0.00000000E+00  0.00000000E+00  0.00000000E+00
  0.00000000E+00  0.00000000E+00  0.00000000E+00
  0.00000000E+00  0.00000000E+00  0.00000000E+00
  0.00000000E+00  0.00000000E+00  0.00000000E+00
  0.00000000E+00  0.00000000E+00  0.00000000E+00
  0.00000000E+00  0.00000000E+00  0.00000000E+00
  0.00000000E+00  0.00000000E+00  0.00000000E+00
  0.00000000E+00  0.00000000E+00  0.00000000E+00
  0.00000000E+00  0.00000000E+00  0.00000000E+00
