title                                   
    1.000000000000000     
     9.5286745055097892    0.0444825011810276   -0.0023520381261747
     0.0445029621946550    9.5343777173780797   -0.0028306959254211
    -0.0015741586025565   -0.0018907631762988    6.3506685388875184
   Mo   Ti   W 
    12    12    12
Direct
  0.6664660998332393  0.3359069967537805  0.0015680377607803
  0.8350062652558625  0.5019615774297903  0.2503471193610170
  0.6648565734389963  0.6658620225049562  0.5043335271074326
  0.1694112851594573  0.1689468493609650  0.2484561904006300
  0.1661360716566226  0.8331331648819634  0.7466155426210860
  0.0004684473858356  0.0004862597499542  0.5019511573247413
  0.5002471698817370  0.5000781194853398  0.7499736510093686
  0.3334079610500499  0.0003074637265972  0.5010969442513301
  0.8364870943134066  0.8288298882905524  0.7484568116233729
  0.4979453042483716  0.4975258893689444  0.2496925271615064
  0.1625239196432211  0.8293851681130650  0.2510522203796384
  0.3324775032768162  0.3335298569162108 -0.0006370988900574
  0.8334890998931194  0.8315689239487160  0.2576614231662773
  0.3271636618941291 -0.0021726147244835 -0.0033584492982167
  0.1671429974910795  0.4985977231537559  0.2451924824413593
  0.6701715204541242  0.0038444780475928  0.5143289399588583
  0.0041203995060321 -0.0020193271331625 -0.0002926495782628
  0.3314169520143916  0.6675303849990692  0.5028022180781188
  0.4996363981788478  0.1688555423644271  0.2509111779427035
  0.6641031259291154  0.6644926350147735 -0.0019609275002334
  0.5028907811645161  0.8350203502088450  0.2617679482451087
 -0.0026608442015158  0.3307083867539468  0.4976678380595040
  0.6738185654172429  0.0031054700197293 -0.0153044157975943
  0.3345810541127080  0.6696655720037618 -0.0084248014103127
  0.3335186733303895  0.3354619716047839  0.5018015022241535
  0.8309827724368218  0.4991031727730205  0.7508724345217194
 -0.0002679464604228  0.6658907819182015 -0.0009345786131730
  0.1680338115590818  0.1660780670888124  0.7457872870414689
  0.8351454363224067  0.1691484727787454  0.7516131589748596
  0.0013371839666446  0.6651674613928134  0.5025496656085300
  0.4970950980016769  0.1716119251940814  0.7504964492720858
  0.6675618670543031  0.3338778038841611  0.5022751022557034
  0.1638292091506056  0.4969975614232687  0.7519044972016820
 -0.0018257994594103  0.3290815158954911 -0.0000710520011342
  0.5006913114167085  0.8363404940541669  0.7382535422505859
  0.8325909756837887  0.1660899907533638  0.2515545768453615
 
  0.00000000E+00  0.00000000E+00  0.00000000E+00
  0.00000000E+00  0.00000000E+00  0.00000000E+00
  0.00000000E+00  0.00000000E+00  0.00000000E+00
  0.00000000E+00  0.00000000E+00  0.00000000E+00
  0.00000000E+00  0.00000000E+00  0.00000000E+00
  0.00000000E+00  0.00000000E+00  0.00000000E+00
  0.00000000E+00  0.00000000E+00  0.00000000E+00
  0.00000000E+00  0.00000000E+00  0.00000000E+00
  0.00000000E+00  0.00000000E+00  0.00000000E+00
  0.00000000E+00  0.00000000E+00  0.00000000E+00
  0.00000000E+00  0.00000000E+00  0.00000000E+00
  0.00000000E+00  0.00000000E+00  0.00000000E+00
  0.00000000E+00  0.00000000E+00  0.00000000E+00
  0.00000000E+00  0.00000000E+00  0.00000000E+00
  0.00000000E+00  0.00000000E+00  0.00000000E+00
  0.00000000E+00  0.00000000E+00  0.00000000E+00
  0.00000000E+00  0.00000000E+00  0.00000000E+00
  0.00000000E+00  0.00000000E+00  0.00000000E+00
  0.00000000E+00  0.00000000E+00  0.00000000E+00
  0.00000000E+00  0.00000000E+00  0.00000000E+00
  0.00000000E+00  0.00000000E+00  0.00000000E+00
  0.00000000E+00  0.00000000E+00  0.00000000E+00
  0.00000000E+00  0.00000000E+00  0.00000000E+00
  0.00000000E+00  0.00000000E+00  0.00000000E+00
  0.00000000E+00  0.00000000E+00  0.00000000E+00
  0.00000000E+00  0.00000000E+00  0.00000000E+00
  0.00000000E+00  0.00000000E+00  0.00000000E+00
  0.00000000E+00  0.00000000E+00  0.00000000E+00
  0.00000000E+00  0.00000000E+00  0.00000000E+00
  0.00000000E+00  0.00000000E+00  0.00000000E+00
  0.00000000E+00  0.00000000E+00  0.00000000E+00
  0.00000000E+00  0.00000000E+00  0.00000000E+00
  0.00000000E+00  0.00000000E+00  0.00000000E+00
  0.00000000E+00  0.00000000E+00  0.00000000E+00
  0.00000000E+00  0.00000000E+00  0.00000000E+00
  0.00000000E+00  0.00000000E+00  0.00000000E+00
