title                                   
    1.000000000000000     
     9.6658773231594850   -0.0223852238044366   -0.0100746004242463
    -0.0223739075910382    9.6880173020799099    0.0027653430229546
    -0.0067271967591067    0.0018736827806099    6.4345747112066842
   Cr   Nb   Ta   W 
     4    14     7    11
Direct
 -0.0020111087849598  0.6682862093488574  0.4976549585342052
  0.3339425098350781  0.3331961211357439  0.4957927765150554
  0.1649961605961662  0.4997506904829006  0.2495325046317242
  0.8332434602212608  0.8296339672249340  0.7517977060307868
  0.8320386388352038  0.1702624536817859  0.7522612767103151
 -0.0009193018613270  0.6672110260024041 -0.0006303971361322
  0.4990884454520668  0.4981260966767946  0.7475032831724829
  0.5001611961372875  0.8311974466443860  0.2464251993302212
  0.4982949743044529  0.4987619990226743  0.2535772100712634
  0.6671968781768594  0.3372215213172222  0.0023119774151093
  0.5005597550827177  0.8315953166814980  0.7536538737281487
  0.3316714394955473 -0.0028559843730629  0.4990731453298327
  0.6746139934438693  0.6689182049721401  0.5024853502851263
  0.1651462300630729  0.5012032019190531  0.7415404627679150
  0.3314863409008624 -0.0021016872485850  0.0026740780776558
  0.3247537200760768  0.6617059817762259  0.4938162525853692
  0.0033660921242215  0.3423534455976199  0.4963735820224450
  0.1702030441375061  0.1707720317287331  0.7471264619999612
  0.4993801177065536  0.1698358744109571  0.7489530106154358
  0.8339481555023953  0.1700624842364248  0.2488740090686417
  0.3305112006379344  0.3379080095189571  0.0084065324987578
  0.1680363990920250  0.1714640565369807  0.2557284047900360
 -0.0017636525594685 -0.0075479160977711 -0.0034429877566405
  0.6712189981634269 -0.0036405507939967  0.5026651579317819
 -0.0031948899645112 -0.0100484426489766  0.5044452273513476
  0.6737100802164179  0.6688517060657156 -0.0021777945842775
  0.1630546538879531  0.8257460340102555  0.7477618437967763
  0.6696975172229396 -0.0025821591127290  0.0000193336813939
  0.1630774454276404  0.8257830379591862  0.2511374203401806
  0.8363142895284157  0.5049355066578513  0.7474324410150839
  0.8368955990415894  0.5035903611562382  0.2517961238009739
  0.6682894060704090  0.3359359933555603  0.4987588346886196
  0.5005271417674817  0.1688637306235976  0.2539800404395366
  0.0018298823049751  0.3416803101008206  0.0023432424432877
  0.3266579493159731  0.6645854361308309  0.0017294233935924
  0.8339772384018869  0.8293384852987725  0.2486200344139854
 
  0.00000000E+00  0.00000000E+00  0.00000000E+00
  0.00000000E+00  0.00000000E+00  0.00000000E+00
  0.00000000E+00  0.00000000E+00  0.00000000E+00
  0.00000000E+00  0.00000000E+00  0.00000000E+00
  0.00000000E+00  0.00000000E+00  0.00000000E+00
  0.00000000E+00  0.00000000E+00  0.00000000E+00
  0.00000000E+00  0.00000000E+00  0.00000000E+00
  0.00000000E+00  0.00000000E+00  0.00000000E+00
  0.00000000E+00  0.00000000E+00  0.00000000E+00
  0.00000000E+00  0.00000000E+00  0.00000000E+00
  0.00000000E+00  0.00000000E+00  0.00000000E+00
  0.00000000E+00  0.00000000E+00  0.00000000E+00
  0.00000000E+00  0.00000000E+00  0.00000000E+00
  0.00000000E+00  0.00000000E+00  0.00000000E+00
  0.00000000E+00  0.00000000E+00  0.00000000E+00
  0.00000000E+00  0.00000000E+00  0.00000000E+00
  0.00000000E+00  0.00000000E+00  0.00000000E+00
  0.00000000E+00  0.00000000E+00  0.00000000E+00
  0.00000000E+00  0.00000000E+00  0.00000000E+00
  0.00000000E+00  0.00000000E+00  0.00000000E+00
  0.00000000E+00  0.00000000E+00  0.00000000E+00
  0.00000000E+00  0.00000000E+00  0.00000000E+00
  0.00000000E+00  0.00000000E+00  0.00000000E+00
  0.00000000E+00  0.00000000E+00  0.00000000E+00
  0.00000000E+00  0.00000000E+00  0.00000000E+00
  0.00000000E+00  0.00000000E+00  0.00000000E+00
  0.00000000E+00  0.00000000E+00  0.00000000E+00
  0.00000000E+00  0.00000000E+00  0.00000000E+00
  0.00000000E+00  0.00000000E+00  0.00000000E+00
  0.00000000E+00  0.00000000E+00  0.00000000E+00
  0.00000000E+00  0.00000000E+00  0.00000000E+00
  0.00000000E+00  0.00000000E+00  0.00000000E+00
  0.00000000E+00  0.00000000E+00  0.00000000E+00
  0.00000000E+00  0.00000000E+00  0.00000000E+00
  0.00000000E+00  0.00000000E+00  0.00000000E+00
  0.00000000E+00  0.00000000E+00  0.00000000E+00
