title                                   
    1.000000000000000     
     9.6628039072601695   -0.0138317342227640   -0.0422031983187867
    -0.0137124365837385    9.6237188850894277    0.0263272821381036
    -0.0282771757401337    0.0176641194289221    6.3837606878775039
   Cr   Hf   W 
     8    10    18
Direct
  0.3306739047051628 -0.0144952200638410  0.4857821303366775
  0.1578947245390193  0.5027898277458870  0.7494701989697156
  0.6742631864738040 -0.0006374808138803  0.4835282395681060
  0.1548216947340511  0.8334607810417951  0.2542133439031991
 -0.0148959290907247  0.3371619514972510 -0.0060712699468294
  0.6735831535522494  0.6662358462164762  0.0004822427148266
  0.6766895123799730 -0.0037645669186743  0.0122739449225602
  0.5050953437899129  0.1490282460142424  0.2685247906196431
  0.1610146529771605  0.1705160788858259  0.7475788430510075
  0.6658749258470363  0.3331037836209709  0.4922658539872297
  0.5145675446405763  0.8385651527812762  0.7519024194292941
  0.6651699189260214  0.3299617050481666  0.0019513720520400
  0.1563976837599060  0.4953250448844501  0.2418790700057963
  0.3336608312317901 -0.0079529851811866  0.0275071866967867
  0.1607258701530523  0.1709296787854452  0.2635411236166955
  0.3473073654092358  0.3366396436103881  0.0000885878839338
  0.3263886143552976  0.6729309049621369  0.4972609269678938
  0.5023530859657589  0.1438678421102530  0.7272838321937815
 -0.0013891945700714  0.6704018823750693  0.5047782514708693
  0.8373385305552403  0.5053424454107974  0.7548536623695110
  0.6716019909778312  0.6663587376775274  0.4936244388418063
  0.8348690416017223  0.1577831981066424  0.2477091361338385
  0.3407888609118899  0.3472708943018530  0.5030223563255010
  0.8313494048957951  0.8335393826903112  0.7537591969856987
  0.5163817018400997  0.8362167859895995  0.2505171833194124
  0.8360120281692071  0.1588539328114236  0.7515198469487147
 -0.0039483517188036 -0.0071403230010970  0.0036475890248444
 -0.0119982808804152  0.3389600189068866  0.5083134692286383
 -0.0020653828120852  0.6702971448684261 -0.0047875290951027
  0.5044697209449804  0.5144232241602780  0.7496208173474266
 -0.0071729205521252 -0.0065085966868462  0.4997999033606955
  0.3311289089266763  0.6696572307443999 -0.0021253074806874
  0.5013121819833496  0.5134080633588279  0.2463935608089290
  0.8309409162158169  0.8347692049098343  0.2451900654030846
  0.1612349920129899  0.8352866343367624  0.7514058928821907
  0.8375597671486198  0.5074139048123204  0.2432946291522723
 
  0.00000000E+00  0.00000000E+00  0.00000000E+00
  0.00000000E+00  0.00000000E+00  0.00000000E+00
  0.00000000E+00  0.00000000E+00  0.00000000E+00
  0.00000000E+00  0.00000000E+00  0.00000000E+00
  0.00000000E+00  0.00000000E+00  0.00000000E+00
  0.00000000E+00  0.00000000E+00  0.00000000E+00
  0.00000000E+00  0.00000000E+00  0.00000000E+00
  0.00000000E+00  0.00000000E+00  0.00000000E+00
  0.00000000E+00  0.00000000E+00  0.00000000E+00
  0.00000000E+00  0.00000000E+00  0.00000000E+00
  0.00000000E+00  0.00000000E+00  0.00000000E+00
  0.00000000E+00  0.00000000E+00  0.00000000E+00
  0.00000000E+00  0.00000000E+00  0.00000000E+00
  0.00000000E+00  0.00000000E+00  0.00000000E+00
  0.00000000E+00  0.00000000E+00  0.00000000E+00
  0.00000000E+00  0.00000000E+00  0.00000000E+00
  0.00000000E+00  0.00000000E+00  0.00000000E+00
  0.00000000E+00  0.00000000E+00  0.00000000E+00
  0.00000000E+00  0.00000000E+00  0.00000000E+00
  0.00000000E+00  0.00000000E+00  0.00000000E+00
  0.00000000E+00  0.00000000E+00  0.00000000E+00
  0.00000000E+00  0.00000000E+00  0.00000000E+00
  0.00000000E+00  0.00000000E+00  0.00000000E+00
  0.00000000E+00  0.00000000E+00  0.00000000E+00
  0.00000000E+00  0.00000000E+00  0.00000000E+00
  0.00000000E+00  0.00000000E+00  0.00000000E+00
  0.00000000E+00  0.00000000E+00  0.00000000E+00
  0.00000000E+00  0.00000000E+00  0.00000000E+00
  0.00000000E+00  0.00000000E+00  0.00000000E+00
  0.00000000E+00  0.00000000E+00  0.00000000E+00
  0.00000000E+00  0.00000000E+00  0.00000000E+00
  0.00000000E+00  0.00000000E+00  0.00000000E+00
  0.00000000E+00  0.00000000E+00  0.00000000E+00
  0.00000000E+00  0.00000000E+00  0.00000000E+00
  0.00000000E+00  0.00000000E+00  0.00000000E+00
  0.00000000E+00  0.00000000E+00  0.00000000E+00
