title                                   
    1.000000000000000     
     9.8053738435873328    0.0341747361121007   -0.0377374800984299
     0.0338728273272123    9.8268423650096128    0.0128494795457502
    -0.0253010478959073    0.0087522760412975    6.5177511785533575
   Mo   Ta   V    Zr
     9     9     9     9
Direct
  0.6729817826924281  0.3371116741088651 -0.0117103608534514
  0.8351499638083371  0.8311315824163423  0.2558619399921071
  0.6656930379588570  0.6682128718723382 -0.0063756364981641
  0.8365177796090323  0.8284339096659444  0.7477871746420410
  0.1662920516380781  0.1591534585914443  0.2438329529615838
  0.0020695335274822 -0.0018558677016666  0.4999612245545475
  0.4972145432530892  0.8197502377593007  0.7376779530015114
  0.6671905058177073  0.6677060449798130  0.5019257543884309
  0.1741958455360953  0.5115237739653253  0.7512149715625839
  0.3193459252960584  0.3339706510623157 -0.0177596430405182
  0.3239478508709741 -0.0056953567754852  0.4902023678001499
 -0.0049736816720468  0.6757467391629465  0.5050988764919886
  0.8306648341190077  0.5097918035808271  0.2389118921969536
  0.3259843786663425  0.3372072513952040  0.5078546094695788
  0.8294895186015675  0.5087174260908410  0.7629277406365345
  0.8462706878455925  0.1556491012443070  0.7544023732880700
  0.4892255766123370  0.8209241027474830  0.2487366885268004
  0.0111908343434848  0.3338277668057491 -0.0051666755489380
  0.5020856568861733  0.5046192390047758  0.7529853035843880
  0.1628701407798297  0.1518345595879183  0.7568022509153340
  0.3458095288347685  0.6696961014494691  0.5291843448779773
  0.6735698706727704 -0.0294295534527909  0.5050570593539376
  0.1571651837152034  0.8463633478333249  0.2513429388449087
  0.3142733269150872  0.0030854633904697  0.0200586587821950
  0.0019743608183132  0.0000381050768128  0.0125355750691103
  0.3499367796506148  0.6621600405868804 -0.0438637210375725
 -0.0169762414465059  0.6813919408771884  0.0036846557832128
  0.1657585308761699  0.8383803730978521  0.7718974246433252
  0.4986231112485932  0.1607906831318840  0.2441928640752818
  0.6715249933236758 -0.0216826089294606 -0.0081818150328421
  0.6626027078067129  0.3403050047195120  0.5129380975505921
  0.0143741274174101  0.3399066012294374  0.5055691911174912
  0.4962578357623795  0.1567989561863702  0.7519287677109019
  0.8343591852707287  0.1627139980428901  0.2523836490688650
  0.1769780953140768  0.5371005802614034  0.2363739717840061
  0.5003618376295743  0.5046199969341678  0.2397265793370783
 
  0.00000000E+00  0.00000000E+00  0.00000000E+00
  0.00000000E+00  0.00000000E+00  0.00000000E+00
  0.00000000E+00  0.00000000E+00  0.00000000E+00
  0.00000000E+00  0.00000000E+00  0.00000000E+00
  0.00000000E+00  0.00000000E+00  0.00000000E+00
  0.00000000E+00  0.00000000E+00  0.00000000E+00
  0.00000000E+00  0.00000000E+00  0.00000000E+00
  0.00000000E+00  0.00000000E+00  0.00000000E+00
  0.00000000E+00  0.00000000E+00  0.00000000E+00
  0.00000000E+00  0.00000000E+00  0.00000000E+00
  0.00000000E+00  0.00000000E+00  0.00000000E+00
  0.00000000E+00  0.00000000E+00  0.00000000E+00
  0.00000000E+00  0.00000000E+00  0.00000000E+00
  0.00000000E+00  0.00000000E+00  0.00000000E+00
  0.00000000E+00  0.00000000E+00  0.00000000E+00
  0.00000000E+00  0.00000000E+00  0.00000000E+00
  0.00000000E+00  0.00000000E+00  0.00000000E+00
  0.00000000E+00  0.00000000E+00  0.00000000E+00
  0.00000000E+00  0.00000000E+00  0.00000000E+00
  0.00000000E+00  0.00000000E+00  0.00000000E+00
  0.00000000E+00  0.00000000E+00  0.00000000E+00
  0.00000000E+00  0.00000000E+00  0.00000000E+00
  0.00000000E+00  0.00000000E+00  0.00000000E+00
  0.00000000E+00  0.00000000E+00  0.00000000E+00
  0.00000000E+00  0.00000000E+00  0.00000000E+00
  0.00000000E+00  0.00000000E+00  0.00000000E+00
  0.00000000E+00  0.00000000E+00  0.00000000E+00
  0.00000000E+00  0.00000000E+00  0.00000000E+00
  0.00000000E+00  0.00000000E+00  0.00000000E+00
  0.00000000E+00  0.00000000E+00  0.00000000E+00
  0.00000000E+00  0.00000000E+00  0.00000000E+00
  0.00000000E+00  0.00000000E+00  0.00000000E+00
  0.00000000E+00  0.00000000E+00  0.00000000E+00
  0.00000000E+00  0.00000000E+00  0.00000000E+00
  0.00000000E+00  0.00000000E+00  0.00000000E+00
  0.00000000E+00  0.00000000E+00  0.00000000E+00
