title                                   
    1.000000000000000     
     9.8502804607986008    0.0214749488558967   -0.0477639202483532
     0.0208949620781449    9.9869214883637270   -0.0076884961135795
    -0.0318826837864320   -0.0051331010359129    6.5802770525124785
   Nb   Ta   Ti   V    Zr
     7     7     8     7     7
Direct
  0.3260737513367128  0.0093079636203252 -0.0060358703859936
  0.8362009405816468  0.8439018858212365  0.2479812294632250
 -0.0080246132533590  0.6632200878319774  0.4947405229571268
  0.5024950727113346  0.1687646489475386  0.7495241104508539
  0.6698941278732201  0.0118015792862856  0.0074652623662158
  0.6712709914315957  0.0099905135925771  0.4975676971582695
  0.0018261230432172  0.3229564842768013  0.4967991124464253
  0.6768327331586357  0.3355578809577844  0.0185499309353131
  0.3213150405514462  0.3179088072271077 -0.0094367237732617
  0.1601733779864155  0.4996931306509073  0.7528551227863042
  0.8361726766310256  0.1689694232186480  0.7558718753440240
  0.5041477951193685  0.8448607462818137  0.7601017565885407
  0.3339704729775259  0.6815937593174377  0.5173419063815039
  0.4973046937201528  0.1724104627478213  0.2532973786804171
  0.0014540825671033  0.3250936100993490  0.0091655149381995
  0.8536558603107105  0.4917848514122947  0.7504377940830547
  0.4817064585768374  0.4826547808713500  0.2622266716520496
 -0.0001810249954268  0.0166074446714571  0.4840646411270927
  0.5024626988853595  0.8513466634757584  0.2387605198202463
  0.1553138102726662  0.8260771758577484  0.7667714986694333
  0.3461620924807984  0.6677023286994168 -0.0216305437049257
  0.6910804469791918  0.3344556680929035  0.4685094445998922
 -0.0006511606580956  0.0356969348888888  0.0239657043018385
  0.1643047240622524  0.1704399927270422  0.2436318838987879
  0.8552877015208986  0.5000306363215644  0.2486507400262035
 -0.0141971252578515  0.6382977593627913  0.0110495381455703
  0.1606839327463584  0.1703704955453411  0.7587451648726442
  0.3089297401201496  0.3043337733282941  0.5110973491161511
  0.8355018744960482  0.1644778457067736  0.2429833262138294
  0.6702018571597417  0.6629255411385993  0.4889009947710082
  0.1734467953632258  0.4975452178633307  0.2554947671184390
  0.3206981430636821  0.0015745187969557  0.5019602829443112
  0.4909742366454789  0.4792827533210058  0.7228323890017254
  0.6697425421414772  0.6564934590730822  0.0086066244530787
  0.8513164731413546  0.8434425939403813  0.7670430820613435
  0.1524526565091011  0.8284285810274099  0.2201093004910628
 
  0.00000000E+00  0.00000000E+00  0.00000000E+00
  0.00000000E+00  0.00000000E+00  0.00000000E+00
  0.00000000E+00  0.00000000E+00  0.00000000E+00
  0.00000000E+00  0.00000000E+00  0.00000000E+00
  0.00000000E+00  0.00000000E+00  0.00000000E+00
  0.00000000E+00  0.00000000E+00  0.00000000E+00
  0.00000000E+00  0.00000000E+00  0.00000000E+00
  0.00000000E+00  0.00000000E+00  0.00000000E+00
  0.00000000E+00  0.00000000E+00  0.00000000E+00
  0.00000000E+00  0.00000000E+00  0.00000000E+00
  0.00000000E+00  0.00000000E+00  0.00000000E+00
  0.00000000E+00  0.00000000E+00  0.00000000E+00
  0.00000000E+00  0.00000000E+00  0.00000000E+00
  0.00000000E+00  0.00000000E+00  0.00000000E+00
  0.00000000E+00  0.00000000E+00  0.00000000E+00
  0.00000000E+00  0.00000000E+00  0.00000000E+00
  0.00000000E+00  0.00000000E+00  0.00000000E+00
  0.00000000E+00  0.00000000E+00  0.00000000E+00
  0.00000000E+00  0.00000000E+00  0.00000000E+00
  0.00000000E+00  0.00000000E+00  0.00000000E+00
  0.00000000E+00  0.00000000E+00  0.00000000E+00
  0.00000000E+00  0.00000000E+00  0.00000000E+00
  0.00000000E+00  0.00000000E+00  0.00000000E+00
  0.00000000E+00  0.00000000E+00  0.00000000E+00
  0.00000000E+00  0.00000000E+00  0.00000000E+00
  0.00000000E+00  0.00000000E+00  0.00000000E+00
  0.00000000E+00  0.00000000E+00  0.00000000E+00
  0.00000000E+00  0.00000000E+00  0.00000000E+00
  0.00000000E+00  0.00000000E+00  0.00000000E+00
  0.00000000E+00  0.00000000E+00  0.00000000E+00
  0.00000000E+00  0.00000000E+00  0.00000000E+00
  0.00000000E+00  0.00000000E+00  0.00000000E+00
  0.00000000E+00  0.00000000E+00  0.00000000E+00
  0.00000000E+00  0.00000000E+00  0.00000000E+00
  0.00000000E+00  0.00000000E+00  0.00000000E+00
  0.00000000E+00  0.00000000E+00  0.00000000E+00
