title                                   
    1.000000000000000     
     9.9721325338265121   -0.0481559823997773    0.0085713560217352
    -0.0482200520976033    9.7295057455830083    0.0810397406916378
     0.0058827805343662    0.0539734834718752    6.5982063886936340
   Cr   Mo   Ta   W    Zr
     6     2     1    12    15
Direct
  0.1584830141915067  0.4934378115468669  0.2719619575248673
  0.0142282936645419  0.3398760478712036  0.4989799481951409
  0.0044073838606969 -0.0099071239256720 -0.0155243126195858
  0.8621618708772554  0.8227974333859913  0.7629542474482910
  0.0104884638326971  0.6782147479080864 -0.0256880823486712
  0.6698588822746289  0.0201821943479136  0.0292173287484873
  0.4943530126258472  0.1653586597528523  0.2615766342680037
  0.0125242789655603  0.6681867380955792  0.4985064909046072
  0.3174391196839437 -0.0013740979848505  0.4997992618385305
  0.1590331073805679  0.4978240782048280  0.7308217634008525
  0.1601443237874194  0.8276428743320050  0.2416573364578273
  0.0093970963546550  0.3370084237297897 -0.0004685486027923
  0.1611178036222411  0.1690544698099308  0.7555730313266887
  0.3258030904704952  0.3341502099177737  0.4957825538787453
  0.6729529366752856  0.6696593050124899  0.4916331986412620
  0.3140484992055854 -0.0021938114484231  0.0004036545016784
  0.1619115646028869  0.8281007081503602  0.7554783571407411
  0.8350460921122889  0.1732550020793199  0.2459847129948015
  0.3205275348790078  0.6628290658163534  0.4911997317748218
  0.4994663735424926  0.5027106366012704  0.2739287035704185
  0.6620660909250832  0.3259318277093781  0.4833147718766385
  0.6776868416161317  0.6708638275402575 -0.0168924377711305
  0.4976613183409724  0.5005147480725211  0.7306296783434931
 -0.0031246878853461 -0.0073229583670456  0.5127126833072110
  0.4948162265786132  0.1593859798737275  0.7589394326627400
  0.3276478887030868  0.3376362123348461  0.0137495457529413
  0.3167018513537809  0.6549163662230593  0.0074624399438651
  0.8441042091856072  0.8389626239581471  0.2233369964132388
  0.6578779595673495  0.3330124455770105  0.0186517844002824
  0.8508095919545560  0.5019396308350114  0.2549558579005496
  0.8467869364118296  0.4997089940334224  0.7326337330213111
  0.4931876784772561  0.8374108473792513  0.7514726543874508
  0.6814152427351782 -0.0031739446009567  0.5045254680882906
  0.8393583347632628  0.1682494353068480  0.7665577378795259
  0.4974483418272949  0.8378158721581169  0.2445925492366047
  0.1521634328357427  0.1673347187627352  0.2495791355122717
 
  0.00000000E+00  0.00000000E+00  0.00000000E+00
  0.00000000E+00  0.00000000E+00  0.00000000E+00
  0.00000000E+00  0.00000000E+00  0.00000000E+00
  0.00000000E+00  0.00000000E+00  0.00000000E+00
  0.00000000E+00  0.00000000E+00  0.00000000E+00
  0.00000000E+00  0.00000000E+00  0.00000000E+00
  0.00000000E+00  0.00000000E+00  0.00000000E+00
  0.00000000E+00  0.00000000E+00  0.00000000E+00
  0.00000000E+00  0.00000000E+00  0.00000000E+00
  0.00000000E+00  0.00000000E+00  0.00000000E+00
  0.00000000E+00  0.00000000E+00  0.00000000E+00
  0.00000000E+00  0.00000000E+00  0.00000000E+00
  0.00000000E+00  0.00000000E+00  0.00000000E+00
  0.00000000E+00  0.00000000E+00  0.00000000E+00
  0.00000000E+00  0.00000000E+00  0.00000000E+00
  0.00000000E+00  0.00000000E+00  0.00000000E+00
  0.00000000E+00  0.00000000E+00  0.00000000E+00
  0.00000000E+00  0.00000000E+00  0.00000000E+00
  0.00000000E+00  0.00000000E+00  0.00000000E+00
  0.00000000E+00  0.00000000E+00  0.00000000E+00
  0.00000000E+00  0.00000000E+00  0.00000000E+00
  0.00000000E+00  0.00000000E+00  0.00000000E+00
  0.00000000E+00  0.00000000E+00  0.00000000E+00
  0.00000000E+00  0.00000000E+00  0.00000000E+00
  0.00000000E+00  0.00000000E+00  0.00000000E+00
  0.00000000E+00  0.00000000E+00  0.00000000E+00
  0.00000000E+00  0.00000000E+00  0.00000000E+00
  0.00000000E+00  0.00000000E+00  0.00000000E+00
  0.00000000E+00  0.00000000E+00  0.00000000E+00
  0.00000000E+00  0.00000000E+00  0.00000000E+00
  0.00000000E+00  0.00000000E+00  0.00000000E+00
  0.00000000E+00  0.00000000E+00  0.00000000E+00
  0.00000000E+00  0.00000000E+00  0.00000000E+00
  0.00000000E+00  0.00000000E+00  0.00000000E+00
  0.00000000E+00  0.00000000E+00  0.00000000E+00
  0.00000000E+00  0.00000000E+00  0.00000000E+00
