title                                   
    1.000000000000000     
     9.3190661745597207    0.0113635750493789    0.0026672650461313
     0.0113878928652820    9.3012061943431164   -0.0090560403320138
     0.0017853650969490   -0.0060412369960412    6.2004627920397652
   Cr   Mo   Nb   V    W 
     8     7     7     7     7
Direct
  0.5059086529084008  0.1664902689924548  0.7470342732276580
 -0.0034852040731472  0.3303836064536736  0.0004494994840204
  0.5050081611763512  0.1681579866114307  0.2529207314443589
  0.6659131487111957  0.3313989580267789  0.4987389335447151
  0.8303795860198167  0.8310641312369993  0.2450849236544824
  0.8306135908565063  0.8330999084220663  0.7536399381490438
  0.3343150780285646  0.0033288142586889 -0.0042786811649535
  0.5062313917967662  0.4983807978051053  0.2530751648621954
  0.8325912409627836  0.4982221830992700  0.7507190129718306
  0.8289688907461340  0.1704947016410795  0.2535684181629257
  0.6690618698447615  0.6677817352573898  0.4976207846786621
 -0.0047269768548078  0.6695950303733333  0.5033207031800657
  0.3372142389424125  0.6656378565188347 -0.0011967795177885
  0.3428300129856936  0.3311769032042817  0.4975587938112528
  0.6657619784850888  0.3318880504250372  0.0014807999523652
  0.1629795112404724  0.4979994814490279  0.2502265825248029
  0.1665520495304037  0.8315649868856186  0.2451268818412581
  0.5033785423654701  0.8341037982161719  0.2472965015923128
  0.1644839587640784  0.5004041297578237  0.7509315937838074
 -0.0095918279486144 -0.0019155046336593  0.5038505257593092
  0.3381477900580011  0.0038647263735017  0.5027640367696627
  0.3435921592132209  0.3262196448453170  0.0023833894018527
  0.8282189558567485  0.1714455412067544  0.7507392654925440
 -0.0067934782071189  0.3307778516382242  0.5025005402793749
 -0.0105924167247932  0.6720542327188179 -0.0025678745366953
  0.6670043655803104  0.0061400995459142  0.5029471924932176
  0.6727478412039057  0.6681416775037774 -0.0008641586166086
  0.1675106761143799  0.8318778455829214  0.7546423756861187
  0.3392714347285865  0.6643947531339573  0.5005752474971716
  0.5055946924965234  0.4999724091667990  0.7450250487956965
 -0.0078723771184273 -0.0033302096697511 -0.0034223238744636
  0.6671083627447877  0.0029470149726877 -0.0029477054391323
  0.1641887919091244  0.1669699321890248  0.2464328587381450
  0.1635760882285093  0.1663161470250860  0.7541222816387855
  0.8317810015971211  0.4986871462726005  0.2491284892018064
  0.5021282178307910  0.8342633634929617  0.7513727345301999
 
  0.00000000E+00  0.00000000E+00  0.00000000E+00
  0.00000000E+00  0.00000000E+00  0.00000000E+00
  0.00000000E+00  0.00000000E+00  0.00000000E+00
  0.00000000E+00  0.00000000E+00  0.00000000E+00
  0.00000000E+00  0.00000000E+00  0.00000000E+00
  0.00000000E+00  0.00000000E+00  0.00000000E+00
  0.00000000E+00  0.00000000E+00  0.00000000E+00
  0.00000000E+00  0.00000000E+00  0.00000000E+00
  0.00000000E+00  0.00000000E+00  0.00000000E+00
  0.00000000E+00  0.00000000E+00  0.00000000E+00
  0.00000000E+00  0.00000000E+00  0.00000000E+00
  0.00000000E+00  0.00000000E+00  0.00000000E+00
  0.00000000E+00  0.00000000E+00  0.00000000E+00
  0.00000000E+00  0.00000000E+00  0.00000000E+00
  0.00000000E+00  0.00000000E+00  0.00000000E+00
  0.00000000E+00  0.00000000E+00  0.00000000E+00
  0.00000000E+00  0.00000000E+00  0.00000000E+00
  0.00000000E+00  0.00000000E+00  0.00000000E+00
  0.00000000E+00  0.00000000E+00  0.00000000E+00
  0.00000000E+00  0.00000000E+00  0.00000000E+00
  0.00000000E+00  0.00000000E+00  0.00000000E+00
  0.00000000E+00  0.00000000E+00  0.00000000E+00
  0.00000000E+00  0.00000000E+00  0.00000000E+00
  0.00000000E+00  0.00000000E+00  0.00000000E+00
  0.00000000E+00  0.00000000E+00  0.00000000E+00
  0.00000000E+00  0.00000000E+00  0.00000000E+00
  0.00000000E+00  0.00000000E+00  0.00000000E+00
  0.00000000E+00  0.00000000E+00  0.00000000E+00
  0.00000000E+00  0.00000000E+00  0.00000000E+00
  0.00000000E+00  0.00000000E+00  0.00000000E+00
  0.00000000E+00  0.00000000E+00  0.00000000E+00
  0.00000000E+00  0.00000000E+00  0.00000000E+00
  0.00000000E+00  0.00000000E+00  0.00000000E+00
  0.00000000E+00  0.00000000E+00  0.00000000E+00
  0.00000000E+00  0.00000000E+00  0.00000000E+00
  0.00000000E+00  0.00000000E+00  0.00000000E+00
