title                                   
    1.000000000000000     
    10.3425197953355124    0.0401653397029324   -0.0062047581574703
     0.0399859139954505   10.3350609402123048   -0.0071404058038563
    -0.0040735518364796   -0.0046644887481380    6.8401308404489374
   Hf   Nb   W    Zr
    14    11     4     7
Direct
  0.6580834265359030  0.0004595784999441  0.5139147408147151
  0.8521451113084397  0.8534554529296039  0.7627813440091589
  0.4837803863274470  0.8179316902112033  0.7526606987378271
  0.0012754435901792  0.6605122344068207  0.4861908706705967
  0.8300752435518186  0.4878985303153757  0.7365343262046681
  0.8308120294955627  0.1648808030396071  0.2475092463363713
  0.3306386509702299  0.3293288781899553  0.4980963347504782
  0.4848273494294346  0.8255648459151179  0.2464481567311324
  0.3262391383317599  0.0183805739692401 -0.0105087573896043
  0.5110200566275552  0.1715248965997885  0.2184154785529481
  0.8396290098307937  0.1692812056672828  0.7500107437346646
  0.6833587737878674  0.6734357671173653  0.0165330241309628
 -0.0006583639444892  0.6569653146563508  0.0143380464385671
  0.1710547135423107  0.8267539450315835  0.7458915716241816
  0.0226624851007547  0.3292572523832487  0.4947488807960480
  0.4900997043192354  0.4977129260409860  0.2346890793825919
  0.0187413957213153  0.0162789464377099  0.0092955757272027
  0.6598294359655724 -0.0052231094053132 -0.0124343904985211
  0.1568352991988492  0.1735721810763053  0.7487230722329136
  0.3187193674180805  0.6385327387198998  0.4885210097334061
  0.0116762280342474  0.0114153963982280  0.4879661875465682
  0.3196055110943657  0.6454425128203842  0.0127086876523390
  0.1754392228322544  0.4972390459185808  0.7569855611256636
  0.8476854621846638  0.8616505421194863  0.2331325194294575
  0.6549546103930877  0.3388262217472842 -0.0139232975387650
  0.4959769948687867  0.1750350100032098  0.7797619540645531
  0.3252700175467678  0.3319075206320026  0.0027798498164350
  0.1744097538287932  0.4939316453039234  0.2484513726837735
  0.1647894566643680  0.1704667618856194  0.2480919382139293
  0.6785753532517813  0.6807025387307305  0.4807283616632698
  0.4933003988887039  0.5053760777541549  0.7604492817852608
  0.8249927700042117  0.4732291212567071  0.2726700033216733
  0.6390572654154215  0.3177277051704896  0.5190196004804761
  0.3365532210540531  0.0202043349072848  0.5068285178429135
  0.1750822303985000  0.8324933251541912  0.2539058833655972
  0.0134628464313721  0.3378475883956461  0.0080845258265447
 
  0.00000000E+00  0.00000000E+00  0.00000000E+00
  0.00000000E+00  0.00000000E+00  0.00000000E+00
  0.00000000E+00  0.00000000E+00  0.00000000E+00
  0.00000000E+00  0.00000000E+00  0.00000000E+00
  0.00000000E+00  0.00000000E+00  0.00000000E+00
  0.00000000E+00  0.00000000E+00  0.00000000E+00
  0.00000000E+00  0.00000000E+00  0.00000000E+00
  0.00000000E+00  0.00000000E+00  0.00000000E+00
  0.00000000E+00  0.00000000E+00  0.00000000E+00
  0.00000000E+00  0.00000000E+00  0.00000000E+00
  0.00000000E+00  0.00000000E+00  0.00000000E+00
  0.00000000E+00  0.00000000E+00  0.00000000E+00
  0.00000000E+00  0.00000000E+00  0.00000000E+00
  0.00000000E+00  0.00000000E+00  0.00000000E+00
  0.00000000E+00  0.00000000E+00  0.00000000E+00
  0.00000000E+00  0.00000000E+00  0.00000000E+00
  0.00000000E+00  0.00000000E+00  0.00000000E+00
  0.00000000E+00  0.00000000E+00  0.00000000E+00
  0.00000000E+00  0.00000000E+00  0.00000000E+00
  0.00000000E+00  0.00000000E+00  0.00000000E+00
  0.00000000E+00  0.00000000E+00  0.00000000E+00
  0.00000000E+00  0.00000000E+00  0.00000000E+00
  0.00000000E+00  0.00000000E+00  0.00000000E+00
  0.00000000E+00  0.00000000E+00  0.00000000E+00
  0.00000000E+00  0.00000000E+00  0.00000000E+00
  0.00000000E+00  0.00000000E+00  0.00000000E+00
  0.00000000E+00  0.00000000E+00  0.00000000E+00
  0.00000000E+00  0.00000000E+00  0.00000000E+00
  0.00000000E+00  0.00000000E+00  0.00000000E+00
  0.00000000E+00  0.00000000E+00  0.00000000E+00
  0.00000000E+00  0.00000000E+00  0.00000000E+00
  0.00000000E+00  0.00000000E+00  0.00000000E+00
  0.00000000E+00  0.00000000E+00  0.00000000E+00
  0.00000000E+00  0.00000000E+00  0.00000000E+00
  0.00000000E+00  0.00000000E+00  0.00000000E+00
  0.00000000E+00  0.00000000E+00  0.00000000E+00
