title                                   
    1.000000000000000     
     9.3999055709288157   -0.0855202560383457   -0.0527112643589460
    -0.0855713664323395    9.4582324393519173   -0.0280062196420414
    -0.0350556914816049   -0.0185906173647519    6.3184014260567318
   Cr   Mo   Ti   V 
     4    10    19     3
Direct
  0.3323890065210672 -0.0107744238118339  0.5029015096676042
  0.6742668934914832  0.0124737984749869  0.5090178930573420
  0.4998888413285833  0.5083795898598975  0.2336794290313033
  0.8237962011357530  0.1624429059519774  0.7381511720391988
  0.3340306269165531 -0.0017790707738734 -0.0002318912441201
  0.6652680437362872  0.6700922349426784  0.0003990805656216
  0.5006466080169707  0.8374266316689744  0.7500993743200031
  0.1667399737043892  0.1556681412629967  0.7443531645260238
 -0.0040553547141526  0.0079381853363054 -0.0030576046641191
  0.3381709051626313  0.6642893207526547  0.0102068577381999
  0.0032616391907248  0.6685356313951719 -0.0019283594825912
 -0.0011148731222045  0.0033902608375238  0.5000442052855020
  0.1721304143149408  0.8340704337140081  0.2549032728632961
  0.8293632893598323  0.1664128255790137  0.2485828647258196
  0.4978369893415767  0.1617622852603222  0.7272409052846805
  0.3291440288663071  0.3455540228262745  0.5003081627649734
  0.1730105569437376  0.8340323620092610  0.7561457298484985
  0.0070548061819288  0.6490220764447047  0.5100835457680537
  0.5027692451201656  0.8415189414159674  0.2571724200401640
  0.1641548770389627  0.1547373095041149  0.2555851833952463
  0.8359579919582254  0.8328241275631904  0.2500863426803411
 -0.0106155950692808  0.3313746482029027  0.5117847422512674
  0.8400039048754689  0.8392893986624408  0.7446099500683525
 -0.0085439741156498  0.3265547395670707 -0.0255227528838927
  0.5098194584314052  0.4983854824558440  0.7740827889872615
  0.1611146362472945  0.5039117981339823  0.2299032644714097
  0.4922610414479944  0.1496291649361271  0.2658695823185026
  0.8307727850833404  0.5064202239948538  0.2259092889463152
  0.3339131501538634  0.3327823112297379  0.0055979418687034
  0.6676313398339160  0.3384101472114652  0.4933959866547877
  0.6730813226237169  0.0141910935350216 -0.0141308304372015
  0.6571723975415593  0.6545051069638352  0.4955606026627844
  0.3397891402634234  0.6597285051128182  0.5042524448068133
  0.8220733952860884  0.5096478151277950  0.7707949338570702
  0.6747942161799642  0.3246045762260097 -0.0093288651744203
  0.1720220707231322  0.5125473984257799  0.7834776633912061
 
  0.00000000E+00  0.00000000E+00  0.00000000E+00
  0.00000000E+00  0.00000000E+00  0.00000000E+00
  0.00000000E+00  0.00000000E+00  0.00000000E+00
  0.00000000E+00  0.00000000E+00  0.00000000E+00
  0.00000000E+00  0.00000000E+00  0.00000000E+00
  0.00000000E+00  0.00000000E+00  0.00000000E+00
  0.00000000E+00  0.00000000E+00  0.00000000E+00
  0.00000000E+00  0.00000000E+00  0.00000000E+00
  0.00000000E+00  0.00000000E+00  0.00000000E+00
  0.00000000E+00  0.00000000E+00  0.00000000E+00
  0.00000000E+00  0.00000000E+00  0.00000000E+00
  0.00000000E+00  0.00000000E+00  0.00000000E+00
  0.00000000E+00  0.00000000E+00  0.00000000E+00
  0.00000000E+00  0.00000000E+00  0.00000000E+00
  0.00000000E+00  0.00000000E+00  0.00000000E+00
  0.00000000E+00  0.00000000E+00  0.00000000E+00
  0.00000000E+00  0.00000000E+00  0.00000000E+00
  0.00000000E+00  0.00000000E+00  0.00000000E+00
  0.00000000E+00  0.00000000E+00  0.00000000E+00
  0.00000000E+00  0.00000000E+00  0.00000000E+00
  0.00000000E+00  0.00000000E+00  0.00000000E+00
  0.00000000E+00  0.00000000E+00  0.00000000E+00
  0.00000000E+00  0.00000000E+00  0.00000000E+00
  0.00000000E+00  0.00000000E+00  0.00000000E+00
  0.00000000E+00  0.00000000E+00  0.00000000E+00
  0.00000000E+00  0.00000000E+00  0.00000000E+00
  0.00000000E+00  0.00000000E+00  0.00000000E+00
  0.00000000E+00  0.00000000E+00  0.00000000E+00
  0.00000000E+00  0.00000000E+00  0.00000000E+00
  0.00000000E+00  0.00000000E+00  0.00000000E+00
  0.00000000E+00  0.00000000E+00  0.00000000E+00
  0.00000000E+00  0.00000000E+00  0.00000000E+00
  0.00000000E+00  0.00000000E+00  0.00000000E+00
  0.00000000E+00  0.00000000E+00  0.00000000E+00
  0.00000000E+00  0.00000000E+00  0.00000000E+00
  0.00000000E+00  0.00000000E+00  0.00000000E+00
