title                                   
    1.000000000000000     
    10.4053390601212712   -0.0095901959531432   -0.0237545871366622
    -0.0091004334321814   10.4604481742326758   -0.0246035941973889
    -0.0158430728072297   -0.0168663284255959    7.1920578897780301
   Hf   Nb   Zr
    10     8    18
Direct
  0.3295691271134816  0.6663673930496360  0.4961761255589398
  0.0025407424825133  0.0018076058333567  0.5255494807204453
 -0.0037065914611402  0.3351647967984395  0.4889030360869472
  0.3398487335830860  0.3403686670112049  0.0194192876354262
  0.0002783913863769  0.0007481906992364 -0.0330907980836142
  0.5110625509749945  0.8322708399194237  0.7285106267292590
  0.4851759671345666  0.1584177312760740  0.2901458361160333
  0.8521260242310968  0.5032730898044078  0.2182667368659836
  0.3139766958471442 -0.0215175849367959  0.5184886714528932
  0.6667343580174157  0.6590447796644897  0.4656287113649297
  0.5038085511591168  0.8476413140408192  0.2868222187730574
  0.6765950599419395  0.0043222726687123  0.4747455637191931
  0.1461523842721212  0.4972538802907312  0.2268677293868573
  0.8423661773866092  0.1671876909748509  0.2330781467575394
  0.0077052411200339  0.3316301107693222  0.0009924294971711
  0.1822144932841950  0.8237370856148746  0.7723096306563310
  0.1662875956753209  0.4832711464249990  0.7689324462624774
  0.4974665592104607  0.4957777726036816  0.2692149993357489
  0.1769145891439403  0.1843240026243044  0.7500504442045137
  0.3372652900504149  0.6601249868664513  0.0140392768514210
  0.6510940235915262  0.3260737673506248  0.0261378667101372
  0.0121756218438533  0.6673476708731232 -0.0373198056264006
  0.3164157786272816  0.3602860487030968  0.4877754006847910
  0.5117810014766933  0.5011278551525079  0.7401885719334808
  0.0156514670713092  0.6602545242135754  0.5165437869101689
  0.1504943773717803  0.8401595008109668  0.2334918499151602
  0.6485582317972660  0.6743246560164485  0.0316373946591254
  0.8258267210633284  0.4966442027761137  0.7631257124751395
  0.5025566293078056  0.1643642357993146  0.7330075143327697
  0.3431653241757769 -0.0072127091870355 -0.0002471359242229
  0.8137389367122477  0.8344402615138415  0.7352078796091169
  0.6822133055004659  0.3376099765583404  0.4724493843488669
  0.1622587579189355  0.1615277593541359  0.2508885396546101
  0.8221679351805073  0.1719844230860761  0.7557557089081406
  0.8466366148790961  0.8362078898168289  0.2511775157494845
  0.6608833329284385  0.0036441651638211  0.0251292157680789
 
  0.00000000E+00  0.00000000E+00  0.00000000E+00
  0.00000000E+00  0.00000000E+00  0.00000000E+00
  0.00000000E+00  0.00000000E+00  0.00000000E+00
  0.00000000E+00  0.00000000E+00  0.00000000E+00
  0.00000000E+00  0.00000000E+00  0.00000000E+00
  0.00000000E+00  0.00000000E+00  0.00000000E+00
  0.00000000E+00  0.00000000E+00  0.00000000E+00
  0.00000000E+00  0.00000000E+00  0.00000000E+00
  0.00000000E+00  0.00000000E+00  0.00000000E+00
  0.00000000E+00  0.00000000E+00  0.00000000E+00
  0.00000000E+00  0.00000000E+00  0.00000000E+00
  0.00000000E+00  0.00000000E+00  0.00000000E+00
  0.00000000E+00  0.00000000E+00  0.00000000E+00
  0.00000000E+00  0.00000000E+00  0.00000000E+00
  0.00000000E+00  0.00000000E+00  0.00000000E+00
  0.00000000E+00  0.00000000E+00  0.00000000E+00
  0.00000000E+00  0.00000000E+00  0.00000000E+00
  0.00000000E+00  0.00000000E+00  0.00000000E+00
  0.00000000E+00  0.00000000E+00  0.00000000E+00
  0.00000000E+00  0.00000000E+00  0.00000000E+00
  0.00000000E+00  0.00000000E+00  0.00000000E+00
  0.00000000E+00  0.00000000E+00  0.00000000E+00
  0.00000000E+00  0.00000000E+00  0.00000000E+00
  0.00000000E+00  0.00000000E+00  0.00000000E+00
  0.00000000E+00  0.00000000E+00  0.00000000E+00
  0.00000000E+00  0.00000000E+00  0.00000000E+00
  0.00000000E+00  0.00000000E+00  0.00000000E+00
  0.00000000E+00  0.00000000E+00  0.00000000E+00
  0.00000000E+00  0.00000000E+00  0.00000000E+00
  0.00000000E+00  0.00000000E+00  0.00000000E+00
  0.00000000E+00  0.00000000E+00  0.00000000E+00
  0.00000000E+00  0.00000000E+00  0.00000000E+00
  0.00000000E+00  0.00000000E+00  0.00000000E+00
  0.00000000E+00  0.00000000E+00  0.00000000E+00
  0.00000000E+00  0.00000000E+00  0.00000000E+00
  0.00000000E+00  0.00000000E+00  0.00000000E+00
