title                                   
    1.000000000000000     
    10.0115326135491003   -0.0373513751737908    0.0319884438359926
    -0.0377024349143489   10.2490456873042852   -0.0085515574311789
     0.0213810468308633   -0.0056545527543844    6.7798810398172744
   Ta   Ti   W    Zr
    11     4     7    14
Direct
  0.1690755148115744  0.4938747459082107  0.2633366604805265
  0.5128096712888941  0.1783673379103657  0.7523431072874361
  0.6654694160451764  0.3391672923954021  0.5079211863411704
  0.8301681812259923  0.1840091269400221  0.7471524921032053
  0.8297906665560515  0.4971443363911550  0.2599282788835880
  0.8334863407415376  0.4964207745025490  0.7368776727449199
  0.0137635073198509  0.6586855578034947  0.4885941814938817
  0.1553907932174430  0.1813595857511606  0.2631594117381102
  0.3318875123273191  0.3372525555943663  0.5172487570121850
  0.8360090914028542  0.8141202017065476  0.2750117390822765
  0.5061150143662879  0.4958872341688947  0.2576194811516061
  0.3172496267051009  0.0301725057627826  0.5033170753603913
  0.0100265045886480  0.0047278890916576  0.0029256918186842
  0.3288051170370695  0.6334670905822352  0.5160511663630386
  0.3319117362286930  0.6456386004845104 -0.0063839139732741
  0.5087211533041579  0.4956519000067737  0.7456672460073577
  0.0045339455502960  0.3379429148852763  0.5076083682929240
  0.1723557156722782  0.8309572953282268  0.2593682962300661
  0.6620702599087969  0.6501959024329242  0.4988517739467459
  0.1573065653744146  0.1736756612087193  0.7401551547497937
  0.6668779610357041  0.3472985117084030 -0.0120649847303961
  0.1649705328442377  0.4998340711222412  0.7381615747530297
  0.1862465416361392  0.8293756535359394  0.7390128873645385
  0.0057154635784523  0.0018486060116582  0.4978416548344763
  0.5028083452928396  0.1828432707707983  0.2459479038834841
  0.4708090579767780  0.8176850164131791  0.2720637279549514
  0.6654332579167934  0.0004699595518587  0.4956301895758912
  0.6761385168842799 -0.0052761381743311 -0.0033488690921239
  0.8371229099368175  0.1818679679216555  0.2459939961687368
  0.4900305542272547  0.8271366128048065  0.7326109532158920
  0.8318312452221803  0.8164379676761612  0.7195430016126448
  0.6610986383421743  0.6644907106357228  0.0018011903177222
  0.0100749821064286  0.6663656721062662  0.0058945981239694
  0.3315423128794455  0.3413786742839638 -0.0101384680572964
  0.3148413610616285  0.0105592097663804  0.0038261201013964
  0.0075119853864088  0.3389657250100230 -0.0095293031415478
 
  0.00000000E+00  0.00000000E+00  0.00000000E+00
  0.00000000E+00  0.00000000E+00  0.00000000E+00
  0.00000000E+00  0.00000000E+00  0.00000000E+00
  0.00000000E+00  0.00000000E+00  0.00000000E+00
  0.00000000E+00  0.00000000E+00  0.00000000E+00
  0.00000000E+00  0.00000000E+00  0.00000000E+00
  0.00000000E+00  0.00000000E+00  0.00000000E+00
  0.00000000E+00  0.00000000E+00  0.00000000E+00
  0.00000000E+00  0.00000000E+00  0.00000000E+00
  0.00000000E+00  0.00000000E+00  0.00000000E+00
  0.00000000E+00  0.00000000E+00  0.00000000E+00
  0.00000000E+00  0.00000000E+00  0.00000000E+00
  0.00000000E+00  0.00000000E+00  0.00000000E+00
  0.00000000E+00  0.00000000E+00  0.00000000E+00
  0.00000000E+00  0.00000000E+00  0.00000000E+00
  0.00000000E+00  0.00000000E+00  0.00000000E+00
  0.00000000E+00  0.00000000E+00  0.00000000E+00
  0.00000000E+00  0.00000000E+00  0.00000000E+00
  0.00000000E+00  0.00000000E+00  0.00000000E+00
  0.00000000E+00  0.00000000E+00  0.00000000E+00
  0.00000000E+00  0.00000000E+00  0.00000000E+00
  0.00000000E+00  0.00000000E+00  0.00000000E+00
  0.00000000E+00  0.00000000E+00  0.00000000E+00
  0.00000000E+00  0.00000000E+00  0.00000000E+00
  0.00000000E+00  0.00000000E+00  0.00000000E+00
  0.00000000E+00  0.00000000E+00  0.00000000E+00
  0.00000000E+00  0.00000000E+00  0.00000000E+00
  0.00000000E+00  0.00000000E+00  0.00000000E+00
  0.00000000E+00  0.00000000E+00  0.00000000E+00
  0.00000000E+00  0.00000000E+00  0.00000000E+00
  0.00000000E+00  0.00000000E+00  0.00000000E+00
  0.00000000E+00  0.00000000E+00  0.00000000E+00
  0.00000000E+00  0.00000000E+00  0.00000000E+00
  0.00000000E+00  0.00000000E+00  0.00000000E+00
  0.00000000E+00  0.00000000E+00  0.00000000E+00
  0.00000000E+00  0.00000000E+00  0.00000000E+00
