title                                   
    1.000000000000000     
     9.6917477623193999   -0.0512895984074094    0.0323971854283339
    -0.0515799938536029    9.6286260001952222   -0.0121433983547608
     0.0216490306530716   -0.0081320909825167    6.4643376610882068
   Cr   Hf   Mo   Ta   Ti
     7     7     8     7     7
Direct
  0.1605136726730774  0.5002617060435951  0.7460615594149264
  0.0223227647773924  0.0052991065802516  0.4956548623515314
  0.6640386318502093 -0.0014612062233714  0.0197162082034764
  0.3179528114401022  0.6667443341133725 -0.0200898350606616
  0.3276721578038317  0.0021683182702092  0.0004061373473860
  0.3258882118127680 -0.0009242479815655  0.5050857008347700
  0.1647352638036330  0.1555396484119190  0.2538500037546190
  0.6618447600193795 -0.0101700654588932  0.4997630446213625
  0.6589816985649004  0.3367285793738554  0.5141444931665012
  0.8441538205149007  0.1645169069636108  0.7602097025710017
  0.3268836408842826  0.3258392370362690  0.5033051579326887
  0.8465121655792395  0.1676525102149310  0.2495702616289238
  0.5009987479283536  0.5107780154820611  0.2314974165006462
  0.4874222163232220  0.8316046462652676  0.2352248119638079
  0.0113002823100746  0.3410614848988021 -0.0079730765293824
  0.1665155688082097  0.1563522004096430  0.7428298468313289
  0.8355566682441438  0.5029315170149973  0.7541140098830104
  0.6781288120560810  0.6735570176099327 -0.0154088252713959
  0.0089029176823167  0.3382886831635539  0.5021533665261451
  0.0183153460554156  0.0039946326922535  0.0014250853489663
  0.1720267237854862  0.8403317823889224  0.7451312376066060
  0.6652845887485240  0.3344345430887111 -0.0013611997704315
  0.4925583551998142  0.5151121534615413  0.7685382907260120
  0.0065844162984506  0.6643687319827908 -0.0191492710238851
  0.3149674981748913  0.6613542805823587  0.5142901515916470
  0.4919913114427140  0.1517373457608356  0.2306390606228807
 -0.0024120591109436  0.6700604325687286  0.5036457470373730
  0.3170045788559872  0.3233171707585666 -0.0059700589299619
  0.1714710445632672  0.8430778405304914  0.2466926502642079
  0.6827502533791898  0.6685046354675138  0.5150441798322930
  0.8387106677776646  0.8457567380429490  0.7705449427545707
  0.8459803610361338  0.8438246071850524  0.2305247872916731
  0.8373785439990762  0.4950880106080889  0.2398601163067378
  0.4920687729060674  0.1428812516823492  0.7795076122247533
  0.4898531793761992  0.8325825587002084  0.7684734799965360
  0.1551416044359447  0.4968048923101965  0.2420483414493346
 
  0.00000000E+00  0.00000000E+00  0.00000000E+00
  0.00000000E+00  0.00000000E+00  0.00000000E+00
  0.00000000E+00  0.00000000E+00  0.00000000E+00
  0.00000000E+00  0.00000000E+00  0.00000000E+00
  0.00000000E+00  0.00000000E+00  0.00000000E+00
  0.00000000E+00  0.00000000E+00  0.00000000E+00
  0.00000000E+00  0.00000000E+00  0.00000000E+00
  0.00000000E+00  0.00000000E+00  0.00000000E+00
  0.00000000E+00  0.00000000E+00  0.00000000E+00
  0.00000000E+00  0.00000000E+00  0.00000000E+00
  0.00000000E+00  0.00000000E+00  0.00000000E+00
  0.00000000E+00  0.00000000E+00  0.00000000E+00
  0.00000000E+00  0.00000000E+00  0.00000000E+00
  0.00000000E+00  0.00000000E+00  0.00000000E+00
  0.00000000E+00  0.00000000E+00  0.00000000E+00
  0.00000000E+00  0.00000000E+00  0.00000000E+00
  0.00000000E+00  0.00000000E+00  0.00000000E+00
  0.00000000E+00  0.00000000E+00  0.00000000E+00
  0.00000000E+00  0.00000000E+00  0.00000000E+00
  0.00000000E+00  0.00000000E+00  0.00000000E+00
  0.00000000E+00  0.00000000E+00  0.00000000E+00
  0.00000000E+00  0.00000000E+00  0.00000000E+00
  0.00000000E+00  0.00000000E+00  0.00000000E+00
  0.00000000E+00  0.00000000E+00  0.00000000E+00
  0.00000000E+00  0.00000000E+00  0.00000000E+00
  0.00000000E+00  0.00000000E+00  0.00000000E+00
  0.00000000E+00  0.00000000E+00  0.00000000E+00
  0.00000000E+00  0.00000000E+00  0.00000000E+00
  0.00000000E+00  0.00000000E+00  0.00000000E+00
  0.00000000E+00  0.00000000E+00  0.00000000E+00
  0.00000000E+00  0.00000000E+00  0.00000000E+00
  0.00000000E+00  0.00000000E+00  0.00000000E+00
  0.00000000E+00  0.00000000E+00  0.00000000E+00
  0.00000000E+00  0.00000000E+00  0.00000000E+00
  0.00000000E+00  0.00000000E+00  0.00000000E+00
  0.00000000E+00  0.00000000E+00  0.00000000E+00
