title                                   
    1.000000000000000     
     9.6041038305301765   -0.0101953417647238    0.0186556078956719
    -0.0101912668199889    9.5977809486719163    0.0154208458837851
     0.0124514606621507    0.0103023215557716    6.4026903109014226
   Mo   Ti   W    Zr
    19    10     4     3
Direct
  0.0047441020941772  0.3346784388359375  0.4948353441700998
  0.8298291254788592  0.1664257799998693  0.2463291406379672
  0.6596910250076718  0.3320082949017374  0.0073709017877159
  0.3291421012268482  0.6645634504319636  0.5034592482039618
  0.1685637862779847  0.1635351738809596  0.7499095238024677
  0.1660309552825999  0.8370479860568598  0.2540715077462856
  0.8324775099178772  0.5016506811401431  0.2496439733300691
  0.1622488794629856  0.5021383506713472  0.7441149545541006
  0.0013643344992179  0.6719615021794961  0.0036940854848366
  0.3289929215248753 -0.0006030011790666 -0.0014406885772347
  0.8329925970763735  0.8359253662216273  0.7524536958177820
  0.3295170846591453  0.0017863859163632  0.5004474816196713
  0.0043390643950089 -0.0029037363593644  0.4979742177032020
  0.6721450756510094 -0.0029754338854034  0.4927600905401581
  0.6720071550837790 -0.0054659994635347  0.0021529917543208
  0.6697061856349392  0.6691126687698749  0.4939200398603923
  0.8326482003393145  0.8349325214190624  0.2492254955374166
  0.5035355034213028  0.4980512816537049  0.2554203901378796
  0.6668133324773196  0.6684173770333369  0.0065695744433876
  0.5038567538188914  0.1576827311359750  0.7474173217329922
  0.3323722520005920  0.3325396937538736  0.5003554894215942
  0.5006748192464658  0.1576542489416383  0.2453826202823529
 -0.0004675267384470  0.6756570718582883  0.5002545311424113
  0.5072860907476354  0.5004451061038195  0.7450284855092657
  0.0097404697154284  0.3309417395883804  0.0050891829679516
  0.1577460207733497  0.4994078016795334  0.2631591872989654
  0.5065878060253863  0.8372795950847145  0.2559383001739265
  0.3242256498028638  0.3310671567347528 -0.0025592938701340
  0.5039453020541798  0.8368247092177538  0.7426865765204679
  0.0039215100383387  0.0012077004594791  0.0039330503645328
  0.1680767402384766  0.8382871833325362  0.7491275077552149
  0.1666718011294871  0.1639320803688115  0.2534002892676103
  0.6576546205649563  0.3350994452368737  0.4848459092836209
  0.3335367384419199  0.6610563593363350  0.0044489790977838
  0.8296011917339393  0.1673984943452011  0.7461772847740497
  0.8277808208952486  0.5032317945971194  0.7524026097229110
 
  0.00000000E+00  0.00000000E+00  0.00000000E+00
  0.00000000E+00  0.00000000E+00  0.00000000E+00
  0.00000000E+00  0.00000000E+00  0.00000000E+00
  0.00000000E+00  0.00000000E+00  0.00000000E+00
  0.00000000E+00  0.00000000E+00  0.00000000E+00
  0.00000000E+00  0.00000000E+00  0.00000000E+00
  0.00000000E+00  0.00000000E+00  0.00000000E+00
  0.00000000E+00  0.00000000E+00  0.00000000E+00
  0.00000000E+00  0.00000000E+00  0.00000000E+00
  0.00000000E+00  0.00000000E+00  0.00000000E+00
  0.00000000E+00  0.00000000E+00  0.00000000E+00
  0.00000000E+00  0.00000000E+00  0.00000000E+00
  0.00000000E+00  0.00000000E+00  0.00000000E+00
  0.00000000E+00  0.00000000E+00  0.00000000E+00
  0.00000000E+00  0.00000000E+00  0.00000000E+00
  0.00000000E+00  0.00000000E+00  0.00000000E+00
  0.00000000E+00  0.00000000E+00  0.00000000E+00
  0.00000000E+00  0.00000000E+00  0.00000000E+00
  0.00000000E+00  0.00000000E+00  0.00000000E+00
  0.00000000E+00  0.00000000E+00  0.00000000E+00
  0.00000000E+00  0.00000000E+00  0.00000000E+00
  0.00000000E+00  0.00000000E+00  0.00000000E+00
  0.00000000E+00  0.00000000E+00  0.00000000E+00
  0.00000000E+00  0.00000000E+00  0.00000000E+00
  0.00000000E+00  0.00000000E+00  0.00000000E+00
  0.00000000E+00  0.00000000E+00  0.00000000E+00
  0.00000000E+00  0.00000000E+00  0.00000000E+00
  0.00000000E+00  0.00000000E+00  0.00000000E+00
  0.00000000E+00  0.00000000E+00  0.00000000E+00
  0.00000000E+00  0.00000000E+00  0.00000000E+00
  0.00000000E+00  0.00000000E+00  0.00000000E+00
  0.00000000E+00  0.00000000E+00  0.00000000E+00
  0.00000000E+00  0.00000000E+00  0.00000000E+00
  0.00000000E+00  0.00000000E+00  0.00000000E+00
  0.00000000E+00  0.00000000E+00  0.00000000E+00
  0.00000000E+00  0.00000000E+00  0.00000000E+00
