title                                   
    1.000000000000000     
     9.8965205665818861   -0.0162026235146286   -0.0102891566736710
    -0.0163792223461206    9.9497208835713948   -0.0017391187549460
    -0.0068152056233730   -0.0014239975099452    6.7032905669194029
   Nb   Ti   W    Zr
    11    14     4     7
Direct
  0.8398233426256285  0.8313741067497261  0.7470879325188452
  0.3284639848440094  0.6687363923929540 -0.0035333930499437
  0.0032123553064892  0.6706940738349514  0.0021890904883042
  0.8435941029515461  0.4864243315465642  0.7544085730440304
  0.3415539985820100  0.3263583146049702 -0.0061587926998989
  0.6719186818043058  0.6503544335058058 -0.0306140732981756
  0.8357362645978541  0.4995401975479327  0.2454303131759993
  0.8429312083175715  0.1788912055567711  0.2430026166986052
  0.1661335608471001  0.1711606285319692  0.7426181306740527
  0.0078380735318478 -0.0026249879223172  0.4981162893686673
  0.6656718734841313  0.0191598701419534  0.0038574839174670
  0.1680611587537873  0.8356021475219562  0.7506427128845546
  0.6619621259070654  0.3259802434094201 -0.0048259186541462
  0.6601952234226279  0.3311952075953933  0.5015105620401226
  0.3225794923875875  0.0091520487500537  0.4678245095069640
  0.6752914321234588  0.6438968483843512  0.5359443851650119
  0.0073590655927416  0.6588037940060721  0.4986683664292811
  0.3404792656330918  0.3297887140418767  0.5057920455043859
  0.8465309393977325  0.1821277471507827  0.7557468786970262
  0.3221429538046445  0.0028857888261110  0.0270425029344031
  0.4832593904637986  0.1592650753205790  0.7600471572859067
  0.1634552614436778  0.4914127112977588  0.7834178886807981
  0.1603775466490595  0.1851818783284940  0.2516710163111427
  0.0073760374991889  0.3534351064097915  0.4968826738244307
  0.1617590321046265  0.4906693468303052  0.2184799450379884
  0.4932600598678372  0.1716343502901417  0.2374542435635731
  0.4960519586013277  0.4886924180271008  0.7577814282769304
 -0.0041541356481363  0.3335827605386470  0.0023953675123394
  0.1634334716884234  0.8288959716544987  0.2477142555565602
  0.8264104243742948  0.8240275822247006  0.2575518950392103
  0.5065704131980003  0.5041357751960812  0.2462245014781049
  0.5042342962845610  0.8315870444503014  0.2482377023863473
  0.0059821310609486 -0.0007676145374989  0.0012752909613499
  0.3164818474638385  0.6525218020507160  0.5037436390635290
  0.4957522058655012  0.8398060885097984  0.7515021950246118
  0.6682709551678215  0.0264185972312877  0.5008705846516225
 
  0.00000000E+00  0.00000000E+00  0.00000000E+00
  0.00000000E+00  0.00000000E+00  0.00000000E+00
  0.00000000E+00  0.00000000E+00  0.00000000E+00
  0.00000000E+00  0.00000000E+00  0.00000000E+00
  0.00000000E+00  0.00000000E+00  0.00000000E+00
  0.00000000E+00  0.00000000E+00  0.00000000E+00
  0.00000000E+00  0.00000000E+00  0.00000000E+00
  0.00000000E+00  0.00000000E+00  0.00000000E+00
  0.00000000E+00  0.00000000E+00  0.00000000E+00
  0.00000000E+00  0.00000000E+00  0.00000000E+00
  0.00000000E+00  0.00000000E+00  0.00000000E+00
  0.00000000E+00  0.00000000E+00  0.00000000E+00
  0.00000000E+00  0.00000000E+00  0.00000000E+00
  0.00000000E+00  0.00000000E+00  0.00000000E+00
  0.00000000E+00  0.00000000E+00  0.00000000E+00
  0.00000000E+00  0.00000000E+00  0.00000000E+00
  0.00000000E+00  0.00000000E+00  0.00000000E+00
  0.00000000E+00  0.00000000E+00  0.00000000E+00
  0.00000000E+00  0.00000000E+00  0.00000000E+00
  0.00000000E+00  0.00000000E+00  0.00000000E+00
  0.00000000E+00  0.00000000E+00  0.00000000E+00
  0.00000000E+00  0.00000000E+00  0.00000000E+00
  0.00000000E+00  0.00000000E+00  0.00000000E+00
  0.00000000E+00  0.00000000E+00  0.00000000E+00
  0.00000000E+00  0.00000000E+00  0.00000000E+00
  0.00000000E+00  0.00000000E+00  0.00000000E+00
  0.00000000E+00  0.00000000E+00  0.00000000E+00
  0.00000000E+00  0.00000000E+00  0.00000000E+00
  0.00000000E+00  0.00000000E+00  0.00000000E+00
  0.00000000E+00  0.00000000E+00  0.00000000E+00
  0.00000000E+00  0.00000000E+00  0.00000000E+00
  0.00000000E+00  0.00000000E+00  0.00000000E+00
  0.00000000E+00  0.00000000E+00  0.00000000E+00
  0.00000000E+00  0.00000000E+00  0.00000000E+00
  0.00000000E+00  0.00000000E+00  0.00000000E+00
  0.00000000E+00  0.00000000E+00  0.00000000E+00
