title                                   
    1.000000000000000     
     9.8267923821874863   -0.0223782887773255   -0.0610092901924258
    -0.0222581269047747    9.8531640630397384   -0.0122812552132060
    -0.0401763677016404   -0.0083065077191245    6.6596791483248561
   Cr   Hf   Mo   Ta   W 
     2    15     6     1    12
Direct
  0.4952535234015643  0.1516630997416231  0.7277092204017073
  0.1673811677726636  0.4981838071435955  0.2632826555573543
  0.4978632010458545  0.5109126611800725  0.7384185377332066
  0.6661919744799752  0.3256953962732355  0.5084296177312960
  0.6645765947751074  0.0045250600573556  0.0053905934391862
  0.0081998565372484  0.6663309952714127 -0.0034763128018169
  0.6593078648419145  0.3235014480528582  0.0002166514167094
  0.3328225625297987  0.3341301833702921 -0.0046484181970824
 -0.0088931515866408 -0.0000430569104338  0.5051444802196720
  0.4985800050183376  0.8328207219080980  0.7388090890384352
  0.3254151836445037  0.6616405021807994  0.0105450620527447
  0.6756443909341844  0.6704199378402597  0.4888149511550672
 -0.0053926398840103 -0.0050186271537766 -0.0030097649454652
  0.1663814438908102  0.1752753541354924  0.2589330800314696
  0.0017660017758709  0.3367524186787532  0.5223861125172670
  0.8453012694296081  0.4965262142290052  0.2414318032262913
  0.3345080083950432  0.0046842804802304 -0.0030081415143398
  0.8349100751359851  0.5019312242888068  0.7676219376519317
  0.8312607133087102  0.8274677250725386  0.2489756417827229
 -0.0009261058313723  0.3320022812064571 -0.0090126456777363
  0.1710745885873012  0.1688581435085376  0.7433358137477932
  0.1702271590814434  0.5012034285812060  0.7398404929436913
  0.0066155194555325  0.6669251460892435  0.5002553645661333
  0.1731068186811535  0.8268382957886694  0.7222823675695809
  0.4892289947780578  0.1639556878399734  0.2718970295221040
  0.3296560810644866  0.6635667577931047  0.4775998396207239
  0.1713297000270756  0.8313389435038754  0.2676776068876275
  0.4962945288253536  0.5023725880946074  0.2575135627161790
  0.5001939812850790  0.8371172124557592  0.2596495751112042
  0.8251298246941546  0.8304006594792157  0.7478767963439736
  0.6735639226723542  0.6742055684108613  0.0062377061606842
  0.8296495887727181  0.1644014839017550  0.7568627153853810
  0.3358711123189548  0.0032976273934448  0.4969638551875737
  0.8375185347238874  0.1747470722880299  0.2500319071042337
  0.3322146416591452  0.3378130193186733  0.4995454836611886
  0.6681730637581458  0.0035567385063689  0.4994757326533069
 
  0.00000000E+00  0.00000000E+00  0.00000000E+00
  0.00000000E+00  0.00000000E+00  0.00000000E+00
  0.00000000E+00  0.00000000E+00  0.00000000E+00
  0.00000000E+00  0.00000000E+00  0.00000000E+00
  0.00000000E+00  0.00000000E+00  0.00000000E+00
  0.00000000E+00  0.00000000E+00  0.00000000E+00
  0.00000000E+00  0.00000000E+00  0.00000000E+00
  0.00000000E+00  0.00000000E+00  0.00000000E+00
  0.00000000E+00  0.00000000E+00  0.00000000E+00
  0.00000000E+00  0.00000000E+00  0.00000000E+00
  0.00000000E+00  0.00000000E+00  0.00000000E+00
  0.00000000E+00  0.00000000E+00  0.00000000E+00
  0.00000000E+00  0.00000000E+00  0.00000000E+00
  0.00000000E+00  0.00000000E+00  0.00000000E+00
  0.00000000E+00  0.00000000E+00  0.00000000E+00
  0.00000000E+00  0.00000000E+00  0.00000000E+00
  0.00000000E+00  0.00000000E+00  0.00000000E+00
  0.00000000E+00  0.00000000E+00  0.00000000E+00
  0.00000000E+00  0.00000000E+00  0.00000000E+00
  0.00000000E+00  0.00000000E+00  0.00000000E+00
  0.00000000E+00  0.00000000E+00  0.00000000E+00
  0.00000000E+00  0.00000000E+00  0.00000000E+00
  0.00000000E+00  0.00000000E+00  0.00000000E+00
  0.00000000E+00  0.00000000E+00  0.00000000E+00
  0.00000000E+00  0.00000000E+00  0.00000000E+00
  0.00000000E+00  0.00000000E+00  0.00000000E+00
  0.00000000E+00  0.00000000E+00  0.00000000E+00
  0.00000000E+00  0.00000000E+00  0.00000000E+00
  0.00000000E+00  0.00000000E+00  0.00000000E+00
  0.00000000E+00  0.00000000E+00  0.00000000E+00
  0.00000000E+00  0.00000000E+00  0.00000000E+00
  0.00000000E+00  0.00000000E+00  0.00000000E+00
  0.00000000E+00  0.00000000E+00  0.00000000E+00
  0.00000000E+00  0.00000000E+00  0.00000000E+00
  0.00000000E+00  0.00000000E+00  0.00000000E+00
  0.00000000E+00  0.00000000E+00  0.00000000E+00
