title                                   
    1.000000000000000     
     9.9549938830737705    0.0168267729974398   -0.0069327783853144
     0.0168379501128028    9.8650129633909440   -0.0063117961217394
    -0.0048053045760199   -0.0043746119187815    6.7197416741708746
   Nb   Ti   W    Zr
     9     9     9     9
Direct
  0.1793136594096414  0.8316316384859546  0.2583121906035175
  0.1818714667216504  0.8353773156551425  0.7417942636581329
  0.5029977975823211  0.8349864344158137  0.2497259383406915
  0.5032625745045510  0.5032079279212802  0.2617594095748495
  0.6767864597770592  0.6507487886236663  0.0027779223369893
 -0.0075872382056395  0.3388978597489468 -0.0089136132639418
  0.3277783510077713  0.6665425219879469  0.4957951762017943
  0.8281444671403334  0.1689888972474225  0.2611451300933057
  0.1762035110024191  0.1713426383027379  0.2550421420853962
  0.8149310569388594  0.1655021236118973  0.7359006756507449
  0.6647488557328699  0.0156670357840053  0.0248291642422092
  0.3230353121722794  0.6654112202974365  0.0011625543092211
  0.1543289321969171  0.4970080284972731  0.2741349706517164
  0.6748417069282102  0.3312209674871857  0.0172646639778943
  0.8389656294823007  0.5091420362619705  0.2638587605271074
 -0.0087054239732708  0.3385751984342683  0.5135145364990785
  0.8195328160465175  0.8161766590744800  0.2668165587574144
  0.6731078514303656  0.3336311179518294  0.4784331282885906
  0.4968965885923645  0.1641733956591843  0.2554780646074933
  0.3304739262465617  0.3356139879405649  0.4896678465170062
  0.1640055605546091  0.4990575690104137  0.7322755243207534
  0.3421976146802703 -0.0022810202394530  0.0135085532668524
  0.0024878577337378  0.6574562496833521  0.5117448493626877
  0.3366883487800414 -0.0016134296988570  0.4868317378469162
  0.6617187027574329  0.0089808024257447  0.4724154472503821
  0.6699269133952473  0.6552359289456948  0.4931465202466049
  0.8317757226533391  0.5000314437688367  0.7394933604369898
  0.5031995135175510  0.5005575740102544  0.7393942199647141
  0.0007265620111511 -0.0021718482017270  0.4830022554709290
  0.5032782009468880  0.8352383607113230  0.7475263414016102
  0.0060421454712472  0.6642363058098548 -0.0029270211872824
  0.5018012193988363  0.1656535753926580  0.7447340210765161
  0.1759388684146947  0.1658040049897491  0.7473873762352090
  0.8201998274564009  0.8324090023367883  0.7350472762217471
  0.3287005807097045  0.3467371388702695  0.0100820336591105
  0.0003840607847652  0.0008225487960929  0.0078380207670498
 
  0.00000000E+00  0.00000000E+00  0.00000000E+00
  0.00000000E+00  0.00000000E+00  0.00000000E+00
  0.00000000E+00  0.00000000E+00  0.00000000E+00
  0.00000000E+00  0.00000000E+00  0.00000000E+00
  0.00000000E+00  0.00000000E+00  0.00000000E+00
  0.00000000E+00  0.00000000E+00  0.00000000E+00
  0.00000000E+00  0.00000000E+00  0.00000000E+00
  0.00000000E+00  0.00000000E+00  0.00000000E+00
  0.00000000E+00  0.00000000E+00  0.00000000E+00
  0.00000000E+00  0.00000000E+00  0.00000000E+00
  0.00000000E+00  0.00000000E+00  0.00000000E+00
  0.00000000E+00  0.00000000E+00  0.00000000E+00
  0.00000000E+00  0.00000000E+00  0.00000000E+00
  0.00000000E+00  0.00000000E+00  0.00000000E+00
  0.00000000E+00  0.00000000E+00  0.00000000E+00
  0.00000000E+00  0.00000000E+00  0.00000000E+00
  0.00000000E+00  0.00000000E+00  0.00000000E+00
  0.00000000E+00  0.00000000E+00  0.00000000E+00
  0.00000000E+00  0.00000000E+00  0.00000000E+00
  0.00000000E+00  0.00000000E+00  0.00000000E+00
  0.00000000E+00  0.00000000E+00  0.00000000E+00
  0.00000000E+00  0.00000000E+00  0.00000000E+00
  0.00000000E+00  0.00000000E+00  0.00000000E+00
  0.00000000E+00  0.00000000E+00  0.00000000E+00
  0.00000000E+00  0.00000000E+00  0.00000000E+00
  0.00000000E+00  0.00000000E+00  0.00000000E+00
  0.00000000E+00  0.00000000E+00  0.00000000E+00
  0.00000000E+00  0.00000000E+00  0.00000000E+00
  0.00000000E+00  0.00000000E+00  0.00000000E+00
  0.00000000E+00  0.00000000E+00  0.00000000E+00
  0.00000000E+00  0.00000000E+00  0.00000000E+00
  0.00000000E+00  0.00000000E+00  0.00000000E+00
  0.00000000E+00  0.00000000E+00  0.00000000E+00
  0.00000000E+00  0.00000000E+00  0.00000000E+00
  0.00000000E+00  0.00000000E+00  0.00000000E+00
  0.00000000E+00  0.00000000E+00  0.00000000E+00
