title                                   
    1.000000000000000     
     9.6068717699453252    0.0051998546414434   -0.0040057445152989
     0.0052036032615343    9.5986347056064965    0.0029578946467756
    -0.0026710381468464    0.0019748122145778    6.3980135818709609
   Hf   Mo   Nb   V    W 
     1     2    12     6    15
Direct
  0.1695055491444200  0.4958273626409870  0.2488543796397985
  0.8305338867248978  0.4983845256023350  0.7504137074594875
  0.6671369414182547 -0.0004858386833351  0.5019869824737263
  0.1637609310415830  0.1657886258438158  0.7500719730542934
  0.3339192171961171  0.0000105117930215 -0.0038485085589003
  0.6675682666741032  0.6655926404750768  0.0007858989647709
  0.5029323993791309  0.8319997440097688  0.2541007975823018
  0.1696597061896482  0.4977254143352290  0.7498590093322725
 -0.0059753387830095  0.6700648435401608  0.5039027901500739
 -0.0044726898504729  0.6694571362016796 -0.0032555870620847
  0.8344882518018391  0.1653416873134464  0.2487523822635597
  0.5016519453952928  0.1685163021789833  0.2513293252774617
  0.8312682691840455  0.1657557880491749  0.7490528562178684
  0.1628842795851040  0.1673915771207296  0.2492883146424281
  0.1661674955153274  0.8347214669288191  0.2508871224668671
 -0.0082635633517999  0.3335131353395279 -0.0040060851280737
 -0.0032868362400696 -0.0041113324703587 -0.0036710821615771
  0.5005966153477213  0.1689050443087330  0.7477920611849117
 -0.0016092600538237 -0.0046244648396897  0.5021600032348521
  0.6684863000602165  0.6647436011771520  0.5030616170298352
  0.5000557719446781  0.4984798215178187  0.2527133205640730
  0.3404275535014783  0.6672576761712007  0.5030918509162127
  0.6661229758066251  0.3370411531649585 -0.0007932905760982
  0.3411644894441017  0.3314454646189277  0.5045067395752514
  0.3331598840677495 -0.0004182632689603  0.5047836242127545
  0.3394711102211924  0.6675768068350866 -0.0032377796556611
  0.8319930051400825  0.8381455467360069  0.7478787184266037
  0.6674147715181704 -0.0008143497191489 -0.0030672639807191
  0.8304158935586630  0.4971537669932687  0.2518450814943378
  0.5015043868182206  0.4994386676554587  0.7478613477919207
  0.1671454272615919  0.8352174385182383  0.7483433444353554
  0.5017884730159011  0.8336057420299816  0.7472871701630263
  0.6646956785219060  0.3389157354711296  0.5004086482285012
  0.8320082268768462  0.8378384503539473  0.2529423416374569
  0.3411927655839152  0.3321403594131396 -0.0050106252798137
 -0.0055127796596473  0.3324582126436891  0.5029288139829254
 
  0.00000000E+00  0.00000000E+00  0.00000000E+00
  0.00000000E+00  0.00000000E+00  0.00000000E+00
  0.00000000E+00  0.00000000E+00  0.00000000E+00
  0.00000000E+00  0.00000000E+00  0.00000000E+00
  0.00000000E+00  0.00000000E+00  0.00000000E+00
  0.00000000E+00  0.00000000E+00  0.00000000E+00
  0.00000000E+00  0.00000000E+00  0.00000000E+00
  0.00000000E+00  0.00000000E+00  0.00000000E+00
  0.00000000E+00  0.00000000E+00  0.00000000E+00
  0.00000000E+00  0.00000000E+00  0.00000000E+00
  0.00000000E+00  0.00000000E+00  0.00000000E+00
  0.00000000E+00  0.00000000E+00  0.00000000E+00
  0.00000000E+00  0.00000000E+00  0.00000000E+00
  0.00000000E+00  0.00000000E+00  0.00000000E+00
  0.00000000E+00  0.00000000E+00  0.00000000E+00
  0.00000000E+00  0.00000000E+00  0.00000000E+00
  0.00000000E+00  0.00000000E+00  0.00000000E+00
  0.00000000E+00  0.00000000E+00  0.00000000E+00
  0.00000000E+00  0.00000000E+00  0.00000000E+00
  0.00000000E+00  0.00000000E+00  0.00000000E+00
  0.00000000E+00  0.00000000E+00  0.00000000E+00
  0.00000000E+00  0.00000000E+00  0.00000000E+00
  0.00000000E+00  0.00000000E+00  0.00000000E+00
  0.00000000E+00  0.00000000E+00  0.00000000E+00
  0.00000000E+00  0.00000000E+00  0.00000000E+00
  0.00000000E+00  0.00000000E+00  0.00000000E+00
  0.00000000E+00  0.00000000E+00  0.00000000E+00
  0.00000000E+00  0.00000000E+00  0.00000000E+00
  0.00000000E+00  0.00000000E+00  0.00000000E+00
  0.00000000E+00  0.00000000E+00  0.00000000E+00
  0.00000000E+00  0.00000000E+00  0.00000000E+00
  0.00000000E+00  0.00000000E+00  0.00000000E+00
  0.00000000E+00  0.00000000E+00  0.00000000E+00
  0.00000000E+00  0.00000000E+00  0.00000000E+00
  0.00000000E+00  0.00000000E+00  0.00000000E+00
  0.00000000E+00  0.00000000E+00  0.00000000E+00
