title                                   
    1.000000000000000     
     9.2150282853215266   -0.0086833596125954    0.1007343400441071
    -0.0086382628126889    9.2064487934191916   -0.0203278313369910
     0.0672527667479882   -0.0136811447650034    6.1254375990537451
   Cr   Ta   V 
     8    10    18
Direct
 -0.0021414144191378  0.0028580049433123  0.0013601060965025
  0.6651806199081750  0.6737628646643498  0.0003222461680778
  0.8307634184755526  0.5009919171590381  0.2555703134536045
  0.8344404669470150  0.1623319356458470  0.7600253710442628
  0.1601821258016474  0.1731392527108987  0.2478934087354235
  0.5077057368502723  0.1684965021969332  0.2515675568489342
 -0.0028483069534087  0.6607782803783695  0.4972551324993966
  0.6654238398120198  0.3291811334470682  0.4932470350282991
  0.6648349662499727  0.3307196330996744  0.0055018149274680
  0.3392679544789446  0.0083060289803409  0.0007758901158348
 -0.0062480985505696  0.6607894159689234  0.0027385543368548
  0.3410732000023502  0.0037017344775702  0.5034555194496082
  0.1626001314447744  0.8286258702760171  0.2538671516320096
  0.8347256170032435  0.1632263399369049  0.2556891691202500
  0.3307319792675799  0.3305553576109793  0.4877803300828358
 -0.0026266865525032  0.0010676073443563  0.5215479537019687
  0.8324241766333943  0.4979833236534938  0.7319187476468447
  0.5008985677237651  0.5071256521044852  0.7425036584746064
  0.6666206437971455 -0.0029243719821377  0.5071911827335381
  0.1638002736939010  0.5007309798757331  0.2507649110748172
  0.6694337037779899  0.6726259083479168  0.4813597364008217
  0.8253045412990563  0.8288633965285630  0.7548561403709692
  0.5105847390210716  0.1699869671430246  0.7446089229686249
  0.8263799251617647  0.8318481013139355  0.2502555877497978
  0.1639270134101576  0.4997957641842602  0.7455399659373650
  0.6667641789306298 -0.0002298360727631 -0.0028755818726760
  0.1592501020483772  0.1733900703489577  0.7664595020860823
  0.5114463819860881  0.8264684702221645  0.2412428982201313
  0.5005096844338116  0.5119331095360999  0.2423824190931121
  0.3321278462955957  0.6666653930784010 -0.0020537631516608
  0.5107491178552810  0.8292027802878673  0.7504881317456261
  0.3264406710084245  0.3335575249407203  0.0035798379193575
  0.1644210914885849  0.8273304001937919  0.7559468572632529
  0.0048332404907076  0.3309956575600370  0.0046096870024084
  0.3340870678210643  0.6670091431204438  0.4941450328729882
  0.0069314833572611  0.3291096867744223  0.4984785722226622
 
  0.00000000E+00  0.00000000E+00  0.00000000E+00
  0.00000000E+00  0.00000000E+00  0.00000000E+00
  0.00000000E+00  0.00000000E+00  0.00000000E+00
  0.00000000E+00  0.00000000E+00  0.00000000E+00
  0.00000000E+00  0.00000000E+00  0.00000000E+00
  0.00000000E+00  0.00000000E+00  0.00000000E+00
  0.00000000E+00  0.00000000E+00  0.00000000E+00
  0.00000000E+00  0.00000000E+00  0.00000000E+00
  0.00000000E+00  0.00000000E+00  0.00000000E+00
  0.00000000E+00  0.00000000E+00  0.00000000E+00
  0.00000000E+00  0.00000000E+00  0.00000000E+00
  0.00000000E+00  0.00000000E+00  0.00000000E+00
  0.00000000E+00  0.00000000E+00  0.00000000E+00
  0.00000000E+00  0.00000000E+00  0.00000000E+00
  0.00000000E+00  0.00000000E+00  0.00000000E+00
  0.00000000E+00  0.00000000E+00  0.00000000E+00
  0.00000000E+00  0.00000000E+00  0.00000000E+00
  0.00000000E+00  0.00000000E+00  0.00000000E+00
  0.00000000E+00  0.00000000E+00  0.00000000E+00
  0.00000000E+00  0.00000000E+00  0.00000000E+00
  0.00000000E+00  0.00000000E+00  0.00000000E+00
  0.00000000E+00  0.00000000E+00  0.00000000E+00
  0.00000000E+00  0.00000000E+00  0.00000000E+00
  0.00000000E+00  0.00000000E+00  0.00000000E+00
  0.00000000E+00  0.00000000E+00  0.00000000E+00
  0.00000000E+00  0.00000000E+00  0.00000000E+00
  0.00000000E+00  0.00000000E+00  0.00000000E+00
  0.00000000E+00  0.00000000E+00  0.00000000E+00
  0.00000000E+00  0.00000000E+00  0.00000000E+00
  0.00000000E+00  0.00000000E+00  0.00000000E+00
  0.00000000E+00  0.00000000E+00  0.00000000E+00
  0.00000000E+00  0.00000000E+00  0.00000000E+00
  0.00000000E+00  0.00000000E+00  0.00000000E+00
  0.00000000E+00  0.00000000E+00  0.00000000E+00
  0.00000000E+00  0.00000000E+00  0.00000000E+00
  0.00000000E+00  0.00000000E+00  0.00000000E+00
