title                                   
    1.000000000000000     
     9.2446305970584746   -0.0156576071283304   -0.0033943714871690
    -0.0157289722643086    9.2280340037437050    0.0233292338283162
    -0.0022706986382820    0.0155354353716563    6.1495141148239147
   Cr   Hf   Mo   Nb   W 
    15     2     6     1    12
Direct
  0.6604115564555909 -0.0022116501182727 -0.0028230563652753
  0.0041856608456093  0.3346939496926824 -0.0023902508844552
  0.0046158585861593  0.6696842193533791  0.0031258682998917
  0.4985215981913652  0.8344089120156428  0.2531990536816671
  0.1733791178214290  0.1679203136619571  0.7505814772816077
  0.3370943385356885  0.6668820259411520  0.5009033982062578
  0.4959354999186148  0.5010695369843845  0.2506697967318512
  0.8303074329156094  0.8344036880993411  0.7516366382845744
  0.4982436907086299  0.1645994391216904  0.2480809962752129
  0.3412144420196904 -0.0026702588336256  0.5051909792231215
  0.3393688956213714  0.3351928508461058 -0.0055628954318283
  0.0043235302486036  0.6700612696717739  0.4975954521118359
  0.4962723841051227  0.1632658278786624  0.7521134206223083
  0.4968046630538887  0.8370494170661045  0.7474002182933329
  0.4961586932243770  0.4996917962426148  0.7507118415457127
  0.8394315332223586  0.5054730015136150  0.7531021211509640
  0.1730663110185503  0.1661090177174425  0.2441538581635074
  0.1686794245451507  0.5011572514272516  0.2495428202763074
  0.8292098151865833  0.1652244179088205  0.7528260475789410
 -0.0018510846004816 -0.0049353854132917  0.5064737850174036
 -0.0012658702120312 -0.0049181755915054 -0.0089986598050501
  0.0045361745484217  0.3326843238820208  0.5037441331508459
  0.3439103083213382 -0.0005531142818433 -0.0077534938177946
  0.8311255458987395  0.1652889601728595  0.2441853089521160
  0.1701352097598614  0.8301108863531456  0.7453123477985076
  0.1706514924842095  0.8297493260049579  0.2549274030179283
  0.6520172574842575  0.3320552980719833  0.0007141062498800
  0.6563185637629919 -0.0026596736382275  0.5043238758112077
  0.8352822067543310  0.5031559616808787  0.2481868063789347
  0.3415222366626657  0.3337058388909998  0.5070420870366751
  0.6576571351003193  0.6739547069094645 -0.0003528908293876
  0.3402800470893934  0.6653431688825939  0.0018789723972228
  0.1696059099207373  0.5001221483750368  0.7536533404285478
  0.6550609654441383  0.6712092383185335  0.4997769995747582
  0.6553121487554454  0.3320412683692430  0.4988894218989949
  0.8324773066012685  0.8316401968224283  0.2479386716936759
 
  0.00000000E+00  0.00000000E+00  0.00000000E+00
  0.00000000E+00  0.00000000E+00  0.00000000E+00
  0.00000000E+00  0.00000000E+00  0.00000000E+00
  0.00000000E+00  0.00000000E+00  0.00000000E+00
  0.00000000E+00  0.00000000E+00  0.00000000E+00
  0.00000000E+00  0.00000000E+00  0.00000000E+00
  0.00000000E+00  0.00000000E+00  0.00000000E+00
  0.00000000E+00  0.00000000E+00  0.00000000E+00
  0.00000000E+00  0.00000000E+00  0.00000000E+00
  0.00000000E+00  0.00000000E+00  0.00000000E+00
  0.00000000E+00  0.00000000E+00  0.00000000E+00
  0.00000000E+00  0.00000000E+00  0.00000000E+00
  0.00000000E+00  0.00000000E+00  0.00000000E+00
  0.00000000E+00  0.00000000E+00  0.00000000E+00
  0.00000000E+00  0.00000000E+00  0.00000000E+00
  0.00000000E+00  0.00000000E+00  0.00000000E+00
  0.00000000E+00  0.00000000E+00  0.00000000E+00
  0.00000000E+00  0.00000000E+00  0.00000000E+00
  0.00000000E+00  0.00000000E+00  0.00000000E+00
  0.00000000E+00  0.00000000E+00  0.00000000E+00
  0.00000000E+00  0.00000000E+00  0.00000000E+00
  0.00000000E+00  0.00000000E+00  0.00000000E+00
  0.00000000E+00  0.00000000E+00  0.00000000E+00
  0.00000000E+00  0.00000000E+00  0.00000000E+00
  0.00000000E+00  0.00000000E+00  0.00000000E+00
  0.00000000E+00  0.00000000E+00  0.00000000E+00
  0.00000000E+00  0.00000000E+00  0.00000000E+00
  0.00000000E+00  0.00000000E+00  0.00000000E+00
  0.00000000E+00  0.00000000E+00  0.00000000E+00
  0.00000000E+00  0.00000000E+00  0.00000000E+00
  0.00000000E+00  0.00000000E+00  0.00000000E+00
  0.00000000E+00  0.00000000E+00  0.00000000E+00
  0.00000000E+00  0.00000000E+00  0.00000000E+00
  0.00000000E+00  0.00000000E+00  0.00000000E+00
  0.00000000E+00  0.00000000E+00  0.00000000E+00
  0.00000000E+00  0.00000000E+00  0.00000000E+00
