title                                   
    1.000000000000000     
    10.1881237592488709   -0.2474755316258203    0.0511590947276886
    -0.2606963280021430    9.8565616448377469   -0.3517233824018029
     0.0351164125174332   -0.2363066906140312    6.7514708172900875
   Cr   Hf   V    Zr
    10    19     3     4
Direct
 -0.0012423590279367 -0.0157003744643523  0.4941331275799271
  0.9022359646815957  0.1067162683108928  0.3280603352409017
  0.7121254192348188 -0.0085038806532190  0.5142234049245851
  0.1670890526522864  0.7981349985666062  0.8162193325807561
  0.1463809291195501  0.1844963339921198  0.2889106957824330
 -0.0145920819320407  0.3508551391264295  0.4632172575729560
  0.0167779276676629  0.6883759635556664 -0.0070823219012843
  0.8514141025120457  0.8416472897054352  0.2503871573873302
  0.2789372284004866  0.3184300977541903  0.4733501567968964
  0.5655668033949566  0.8740503651137197  0.7123159258116626
  0.3659523669902649 -0.0381398364542076 -0.0353235667705547
  0.5290650191671058  0.1443067333826313  0.7108232057449763
  0.5075743629232724  0.8787968208624413  0.3143460174269685
  0.1759383504724473  0.8399303608823969  0.2338360630712796
  0.3551053650582197  0.6491029970407041  0.0118724518531878
 -0.0455575710455147  0.2983828410926220  0.0399364767711177
  0.4755495495456015  0.4461801022912798  0.6924207319872788
  0.0383613641566165  0.0163974646459089 -0.0413863642548613
  0.1586917956834724  0.5009259748843231  0.2445394879081957
  0.8437089141651632  0.4995805009978774  0.7506198585584261
  0.2697823927834995  0.0212240259153711  0.5701046909114295
  0.6458809669366666  0.6860992635612917 -0.0094800479838004
  0.6437538275943635  0.3568828021433257  0.0094480500325237
  0.7151239118335050  0.3052513350032280  0.4270303864480569
  0.8540174488628512  0.5504702002250644  0.2207650152492156
  0.1492818223169969  0.4958162681688328  0.7548860674149932
  0.6556720250642852  0.6598261249926116  0.4908294509954814
  0.8389296708823284  0.8298170408522773  0.7706932626967657
  0.4610598603815314  0.1795914669315570  0.2746896564723378
  0.4557804902455141  0.4660679982358439  0.2831209053853999
  0.0827196068784911  0.2203731787859900  0.6628918064770537
  0.8385002999842996  0.1486379621496673  0.7088403920430221
  0.2840660636887014  0.2799359065737655 -0.0330319349007497
  0.7076222485144731  0.0322512353474515  0.0437066717565011
  0.0205778093603941  0.7042942984143945  0.5195021023865227
  0.3481490508520230  0.6894947320658618  0.5505840905430673
 
  0.00000000E+00  0.00000000E+00  0.00000000E+00
  0.00000000E+00  0.00000000E+00  0.00000000E+00
  0.00000000E+00  0.00000000E+00  0.00000000E+00
  0.00000000E+00  0.00000000E+00  0.00000000E+00
  0.00000000E+00  0.00000000E+00  0.00000000E+00
  0.00000000E+00  0.00000000E+00  0.00000000E+00
  0.00000000E+00  0.00000000E+00  0.00000000E+00
  0.00000000E+00  0.00000000E+00  0.00000000E+00
  0.00000000E+00  0.00000000E+00  0.00000000E+00
  0.00000000E+00  0.00000000E+00  0.00000000E+00
  0.00000000E+00  0.00000000E+00  0.00000000E+00
  0.00000000E+00  0.00000000E+00  0.00000000E+00
  0.00000000E+00  0.00000000E+00  0.00000000E+00
  0.00000000E+00  0.00000000E+00  0.00000000E+00
  0.00000000E+00  0.00000000E+00  0.00000000E+00
  0.00000000E+00  0.00000000E+00  0.00000000E+00
  0.00000000E+00  0.00000000E+00  0.00000000E+00
  0.00000000E+00  0.00000000E+00  0.00000000E+00
  0.00000000E+00  0.00000000E+00  0.00000000E+00
  0.00000000E+00  0.00000000E+00  0.00000000E+00
  0.00000000E+00  0.00000000E+00  0.00000000E+00
  0.00000000E+00  0.00000000E+00  0.00000000E+00
  0.00000000E+00  0.00000000E+00  0.00000000E+00
  0.00000000E+00  0.00000000E+00  0.00000000E+00
  0.00000000E+00  0.00000000E+00  0.00000000E+00
  0.00000000E+00  0.00000000E+00  0.00000000E+00
  0.00000000E+00  0.00000000E+00  0.00000000E+00
  0.00000000E+00  0.00000000E+00  0.00000000E+00
  0.00000000E+00  0.00000000E+00  0.00000000E+00
  0.00000000E+00  0.00000000E+00  0.00000000E+00
  0.00000000E+00  0.00000000E+00  0.00000000E+00
  0.00000000E+00  0.00000000E+00  0.00000000E+00
  0.00000000E+00  0.00000000E+00  0.00000000E+00
  0.00000000E+00  0.00000000E+00  0.00000000E+00
  0.00000000E+00  0.00000000E+00  0.00000000E+00
  0.00000000E+00  0.00000000E+00  0.00000000E+00
