title                                   
    1.000000000000000     
     9.8252054655440340    0.0320583038570180   -0.0336673936827591
     0.0320947292106163    9.8272418305177922    0.0396539195681729
    -0.0223461370302640    0.0263131792846949    6.5846004074643671
   Mo   Ta   Ti   W    Zr
     7     7     8     7     7
Direct
  0.3319368588091410  0.3289872791962022 -0.0115267947427982
  0.0099008690686693 -0.0016342748183060  0.5046530023818313
  0.8362138868075301  0.8354684816469222  0.2427662897740212
  0.8398945347638308  0.1580007174855713  0.7476541356530718
  0.1666996862507342  0.1650931331044755  0.7509769271596947
  0.0022202693385590  0.6734098594576587  0.0108768724391548
  0.3402050899190084  0.6776160722011429  0.5007933164244995
 -0.0011333652773524  0.3264736071452882 -0.0075031402501826
  0.1687986621539415  0.8377127968342137  0.2473450185315753
  0.4957612803369928  0.5020873786666148  0.2529842326376557
  0.3286115252386251  0.3247718169334254  0.5146679982168159
  0.1639367099324110  0.1594714869940662  0.2478494009426603
  0.3399892958105106  0.6809319533163944 -0.0035093218884872
  0.6665413697333818  0.3331369786958180  0.5072009777304066
  0.0034572352673332  0.3252857972500305  0.5165032721411836
  0.3343240654592863 -0.0047954082151439 -0.0237606002698678
  0.6563488879785913 -0.0039049163075498 -0.0149879431529802
  0.6532923539254054 -0.0103781939612296  0.5061368954724512
  0.4914799075245668  0.5073477089580747  0.7462022687900483
  0.1790001795394940  0.5028550000798290  0.7656212819425523
  0.6632275078683650  0.6762331145661011  0.4831753271713315
  0.3347634287881708 -0.0011248306847396  0.5181338585721764
  0.1643513777368529  0.8338356986514839  0.7516223753508995
  0.4963229214313527  0.1708053176587338  0.7462255645184347
  0.6603992960174377  0.6760389466857178  0.0182434715874037
  0.4981929183952732  0.8320908414035519  0.2486012375397951
  0.0088671082132232  0.0003918047716901 -0.0061735516096598
  0.5016938097852696  0.8269553050844620  0.7468350690173040
  0.8306383922702129  0.5016932689110943  0.2450814529489881
  0.8395617853658038  0.1536049714710762  0.2584623733979429
  0.1705455298370863  0.4985796646303828  0.2421046643996811
  0.8341213881424943  0.8365921502921865  0.7565323646995771
  0.4877614360948601  0.1660642156976004  0.2446192889136554
  0.8343722788054584  0.5129468558601462  0.7615991290484216
 -0.0017254667334926  0.6655054170496613  0.4913728934367762
  0.6694269854009707  0.3318499832873531 -0.0073796089260318
 
  0.00000000E+00  0.00000000E+00  0.00000000E+00
  0.00000000E+00  0.00000000E+00  0.00000000E+00
  0.00000000E+00  0.00000000E+00  0.00000000E+00
  0.00000000E+00  0.00000000E+00  0.00000000E+00
  0.00000000E+00  0.00000000E+00  0.00000000E+00
  0.00000000E+00  0.00000000E+00  0.00000000E+00
  0.00000000E+00  0.00000000E+00  0.00000000E+00
  0.00000000E+00  0.00000000E+00  0.00000000E+00
  0.00000000E+00  0.00000000E+00  0.00000000E+00
  0.00000000E+00  0.00000000E+00  0.00000000E+00
  0.00000000E+00  0.00000000E+00  0.00000000E+00
  0.00000000E+00  0.00000000E+00  0.00000000E+00
  0.00000000E+00  0.00000000E+00  0.00000000E+00
  0.00000000E+00  0.00000000E+00  0.00000000E+00
  0.00000000E+00  0.00000000E+00  0.00000000E+00
  0.00000000E+00  0.00000000E+00  0.00000000E+00
  0.00000000E+00  0.00000000E+00  0.00000000E+00
  0.00000000E+00  0.00000000E+00  0.00000000E+00
  0.00000000E+00  0.00000000E+00  0.00000000E+00
  0.00000000E+00  0.00000000E+00  0.00000000E+00
  0.00000000E+00  0.00000000E+00  0.00000000E+00
  0.00000000E+00  0.00000000E+00  0.00000000E+00
  0.00000000E+00  0.00000000E+00  0.00000000E+00
  0.00000000E+00  0.00000000E+00  0.00000000E+00
  0.00000000E+00  0.00000000E+00  0.00000000E+00
  0.00000000E+00  0.00000000E+00  0.00000000E+00
  0.00000000E+00  0.00000000E+00  0.00000000E+00
  0.00000000E+00  0.00000000E+00  0.00000000E+00
  0.00000000E+00  0.00000000E+00  0.00000000E+00
  0.00000000E+00  0.00000000E+00  0.00000000E+00
  0.00000000E+00  0.00000000E+00  0.00000000E+00
  0.00000000E+00  0.00000000E+00  0.00000000E+00
  0.00000000E+00  0.00000000E+00  0.00000000E+00
  0.00000000E+00  0.00000000E+00  0.00000000E+00
  0.00000000E+00  0.00000000E+00  0.00000000E+00
  0.00000000E+00  0.00000000E+00  0.00000000E+00
