title                                   
    1.000000000000000     
     9.7865320639896503   -0.0082759853729119   -0.0491616595793933
    -0.0081517698311745    9.7665778376945678   -0.0058970075511189
    -0.0325857096916206   -0.0039134079222929    6.5202056282087248
   Hf   Nb   V    W 
     9     9     9     9
Direct
  0.8460322415279670  0.4977939830848404  0.2395933139316699
  0.5001337451850548  0.4883668465445631  0.7607911097231588
  0.4911658830668867  0.1774041205687394  0.7477260540223327
  0.6600647473520546  0.0003812590064108  0.0153877674147648
  0.8587823965819855  0.8353250133575980  0.2477756091177528
  0.1634120983815403  0.4997684738037142  0.2406484220647562
  0.6678110201964809  0.6685529794661738  0.5017070834924394
  0.3314937541424143 -0.0060686579348415  0.0069727624226699
  0.1593641375856744  0.1729724997256133  0.2394288448028128
  0.1618625663062787  0.8344731652332605  0.7453531623364571
  0.6656329010956319 -0.0025469708968629  0.5045566180986613
  0.3310122756199421 -0.0054320158420437  0.4897270797088241
  0.6679286244669428  0.6699945088445057 -0.0023508976570489
  0.3348710716959604  0.6752164327947594  0.0031944140918641
  0.6704452866347875  0.3315668087217334  0.4934771771577109
  0.8344716918993308  0.1676485251686178  0.7565461632139996
  0.3396755711045343  0.6716631843533694  0.4939560488866739
  0.1686164181787125  0.4950109144178767  0.7483024227959669
  0.4858686624381576  0.8254909708911864  0.2597402466890134
  0.4912512290488809  0.1807851998728988  0.2636196492390010
  0.0041026162779806  0.6735032276511528 -0.0260827321159181
  0.1543214981411909  0.1690795780106977  0.7340004423499941
  0.3435286735078679  0.3344686178361911  0.0161828445313849
 -0.0150900505155125  0.3249518786074150 -0.0224686468803668
  0.6696820489487563  0.3236685373262039  0.0179513303495226
  0.1586712934706902  0.8322994009999625  0.2533691309939196
 -0.0057096030310731  0.0044277011617864 -0.0184990921569302
 -0.0023757763168383  0.3288949493082071  0.5131528854840497
  0.8413277046811635  0.4967069018814452  0.7573667684386720
  0.0025894852456137  0.0047344666272978  0.5108009821271292
  0.8385451212731666  0.1693214826318210  0.2551086605751265
  0.0072247300793547  0.6683571554964383  0.5157694165214808
  0.3330318312440531  0.3337569997447819  0.4873486467700893
  0.4981600201689519  0.4921892739124431  0.2455698654082662
  0.4982460948830266  0.8301720149555344  0.7488121910746520
  0.8438479894323903  0.8351005726665108  0.7554642549754452
 
  0.00000000E+00  0.00000000E+00  0.00000000E+00
  0.00000000E+00  0.00000000E+00  0.00000000E+00
  0.00000000E+00  0.00000000E+00  0.00000000E+00
  0.00000000E+00  0.00000000E+00  0.00000000E+00
  0.00000000E+00  0.00000000E+00  0.00000000E+00
  0.00000000E+00  0.00000000E+00  0.00000000E+00
  0.00000000E+00  0.00000000E+00  0.00000000E+00
  0.00000000E+00  0.00000000E+00  0.00000000E+00
  0.00000000E+00  0.00000000E+00  0.00000000E+00
  0.00000000E+00  0.00000000E+00  0.00000000E+00
  0.00000000E+00  0.00000000E+00  0.00000000E+00
  0.00000000E+00  0.00000000E+00  0.00000000E+00
  0.00000000E+00  0.00000000E+00  0.00000000E+00
  0.00000000E+00  0.00000000E+00  0.00000000E+00
  0.00000000E+00  0.00000000E+00  0.00000000E+00
  0.00000000E+00  0.00000000E+00  0.00000000E+00
  0.00000000E+00  0.00000000E+00  0.00000000E+00
  0.00000000E+00  0.00000000E+00  0.00000000E+00
  0.00000000E+00  0.00000000E+00  0.00000000E+00
  0.00000000E+00  0.00000000E+00  0.00000000E+00
  0.00000000E+00  0.00000000E+00  0.00000000E+00
  0.00000000E+00  0.00000000E+00  0.00000000E+00
  0.00000000E+00  0.00000000E+00  0.00000000E+00
  0.00000000E+00  0.00000000E+00  0.00000000E+00
  0.00000000E+00  0.00000000E+00  0.00000000E+00
  0.00000000E+00  0.00000000E+00  0.00000000E+00
  0.00000000E+00  0.00000000E+00  0.00000000E+00
  0.00000000E+00  0.00000000E+00  0.00000000E+00
  0.00000000E+00  0.00000000E+00  0.00000000E+00
  0.00000000E+00  0.00000000E+00  0.00000000E+00
  0.00000000E+00  0.00000000E+00  0.00000000E+00
  0.00000000E+00  0.00000000E+00  0.00000000E+00
  0.00000000E+00  0.00000000E+00  0.00000000E+00
  0.00000000E+00  0.00000000E+00  0.00000000E+00
  0.00000000E+00  0.00000000E+00  0.00000000E+00
  0.00000000E+00  0.00000000E+00  0.00000000E+00
