title                                   
    1.000000000000000     
    10.0006599581052704   -0.0164543233214995   -0.0367134270958947
    -0.0165093300012832    9.9522261614074505   -0.0122247732871381
    -0.0245135953912385   -0.0082076594195000    6.6166015169237342
   Mo   Nb   Ta   Ti   Zr
     7     7     8     7     7
Direct
  0.8247921240560308  0.5071698244101405  0.7515540568344954
  0.3284521431621548  0.3383019140115878 -0.0065238230407294
  0.8289121262863608  0.1676934571547080  0.7565634274509163
  0.8412307137636925  0.8314178588126815  0.2478856136262863
  0.6737768959673386  0.3352089986591921 -0.0035093927194856
  0.6775208033045814  0.6637209607828081  0.5059571408541349
  0.1690956463135280  0.5066728338207767  0.2457227644520213
  0.3450152921772075 -0.0112161318241160 -0.0391591991891017
  0.6729241168797645  0.3327924736140533  0.5147817578371702
 -0.0087083689577039  0.0000018732229059  0.4970872677226216
  0.5081169421565271  0.8098762707457894  0.7432622351976244
  0.8208208756140485  0.5032568225197407  0.2544227944872408
  0.3234911269182149  0.3391350136208490  0.5027900037091624
 -0.0128610292275675  0.0017295817611407 -0.0045179357512073
  0.4956309783743948  0.4945526294335004  0.7560826299526433
 -0.0002621085805354  0.6636517992980978  0.0047601470502271
  0.6788136906754478  0.6685818736369684 -0.0028232463009566
  0.8435150013086250  0.8283944811093968  0.7439119985174442
  0.8226348762655306  0.1715378912718740  0.2448718512139549
  0.3184124653914160  0.6660865966351067  0.0039502339137466
  0.1779724510057684  0.1676305244475860  0.7554057569437527
  0.0033968984811238  0.6665825925175327  0.4914344151228257
  0.1812744606488349  0.4971027433360191  0.7576449996867429
  0.3110639485864505  0.6592879944197761  0.4906958180751507
  0.3431884027558910 -0.0074998695881947  0.5332649160097063
  0.6796768768958520 -0.0040081483844746 -0.0103534819795190
  0.4968810340651403  0.1878629737464937  0.7660362226923474
  0.1663548514633501  0.8425690635251654  0.2423612931080423
  0.1543453390597435  0.8372259530955684  0.7526535611681575
  0.5010714441281848  0.4982406400782443  0.2528632799078068
 -0.0038284264417534  0.3389641919112256  0.5071998512236333
  0.1737883874729908  0.1536579628835816  0.2455657862922022
  0.4978450971030839  0.8278794198641368  0.2527372659739813
 -0.0032593552107448  0.3405447579792057 -0.0023262391009432
  0.6693031342336562  0.0022434214517552  0.5110185722777969
  0.4996011439033716  0.1731487560191763  0.2367276567801081
 
  0.00000000E+00  0.00000000E+00  0.00000000E+00
  0.00000000E+00  0.00000000E+00  0.00000000E+00
  0.00000000E+00  0.00000000E+00  0.00000000E+00
  0.00000000E+00  0.00000000E+00  0.00000000E+00
  0.00000000E+00  0.00000000E+00  0.00000000E+00
  0.00000000E+00  0.00000000E+00  0.00000000E+00
  0.00000000E+00  0.00000000E+00  0.00000000E+00
  0.00000000E+00  0.00000000E+00  0.00000000E+00
  0.00000000E+00  0.00000000E+00  0.00000000E+00
  0.00000000E+00  0.00000000E+00  0.00000000E+00
  0.00000000E+00  0.00000000E+00  0.00000000E+00
  0.00000000E+00  0.00000000E+00  0.00000000E+00
  0.00000000E+00  0.00000000E+00  0.00000000E+00
  0.00000000E+00  0.00000000E+00  0.00000000E+00
  0.00000000E+00  0.00000000E+00  0.00000000E+00
  0.00000000E+00  0.00000000E+00  0.00000000E+00
  0.00000000E+00  0.00000000E+00  0.00000000E+00
  0.00000000E+00  0.00000000E+00  0.00000000E+00
  0.00000000E+00  0.00000000E+00  0.00000000E+00
  0.00000000E+00  0.00000000E+00  0.00000000E+00
  0.00000000E+00  0.00000000E+00  0.00000000E+00
  0.00000000E+00  0.00000000E+00  0.00000000E+00
  0.00000000E+00  0.00000000E+00  0.00000000E+00
  0.00000000E+00  0.00000000E+00  0.00000000E+00
  0.00000000E+00  0.00000000E+00  0.00000000E+00
  0.00000000E+00  0.00000000E+00  0.00000000E+00
  0.00000000E+00  0.00000000E+00  0.00000000E+00
  0.00000000E+00  0.00000000E+00  0.00000000E+00
  0.00000000E+00  0.00000000E+00  0.00000000E+00
  0.00000000E+00  0.00000000E+00  0.00000000E+00
  0.00000000E+00  0.00000000E+00  0.00000000E+00
  0.00000000E+00  0.00000000E+00  0.00000000E+00
  0.00000000E+00  0.00000000E+00  0.00000000E+00
  0.00000000E+00  0.00000000E+00  0.00000000E+00
  0.00000000E+00  0.00000000E+00  0.00000000E+00
  0.00000000E+00  0.00000000E+00  0.00000000E+00
