title                                   
    1.000000000000000     
     9.4980501163537436    0.0193621158506620    0.0082739621008311
     0.0192605020749628    9.4177995367941421    0.0066793104757151
     0.0055229923166676    0.0044394304599810    6.2959805932547734
   Cr   Mo   Nb   Ti   W 
     7     7     8     7     7
Direct
  0.1681028029718430  0.8346559870393568  0.7569318810573825
  0.4994972840149688  0.4985748949267778  0.2463663719159439
  0.1680750360456624  0.8323859306190639  0.2462255479264073
  0.3309568853444415  0.0037970951534342 -0.0074239906218241
  0.5011610053029615  0.1718084641225018  0.7569349322611448
  0.1770524526308888  0.1596183278196482  0.7603620567423990
  0.6565580349306539  0.3294736860679680 -0.0039886829762437
  0.1687013143309853  0.5023475042286668  0.2517705226451772
  0.1725513443338376  0.1603979908269690  0.2452164363873173
  0.8377566830013330  0.8344781732831730  0.2495989941401041
  0.8337547158175640  0.1667870250402502  0.7561997943135459
  0.6607216376228546  0.3344226330266479  0.5014246451894000
  0.1699454997040091  0.5018250821341237  0.7508273915743378
  0.0036361546977650  0.6715273874126035  0.4984057541300316
  0.8304636499566970  0.4953041627215804  0.7498807028783445
  0.0073117168333658  0.3248439374564527  0.5054532786132234
  0.3361958355931137  0.3309263988234152  0.5023448891788501
  0.4877900955953391  0.8406624395288692  0.2451638733960802
  0.6596265895352968  0.6654919392887571  0.0043484739511499
  0.8368567003497491  0.8324094828902900  0.7464693203063473
  0.6628142214742380  0.0023304466830089  0.5031687711287961
  0.0063419565829151  0.6689867048973492  0.0031952386087878
  0.0140384442961814  0.3242951278279730 -0.0023423339808590
  0.3248674526873201  0.0036124707665903  0.5092116349246740
  0.6632317133586132  0.0069808823883015 -0.0079423773423190
  0.8286720497253355  0.1752411791055672  0.2433887850197186
  0.8264599289927288  0.4878491338988374  0.2501096541805465
  0.6564214970938692  0.6655352320586100  0.4925849497816759
  0.0130645639650825 -0.0027026783450899  0.5020786471318425
  0.3293199240052468  0.6698264722314046  0.4997300161504343
  0.0111143868801961 -0.0009192913586498 -0.0027635882663524
  0.3362149788673143  0.3306731344644393 -0.0025071855973434
  0.4998541624047518  0.4973946125841783  0.7524751361093232
  0.3281075370281220  0.6690350855110040  0.0028530844291341
  0.4891891613949849  0.8380483803894014  0.7532844326195598
  0.5035725826297692  0.1720745644865232  0.2409629420932622
 
  0.00000000E+00  0.00000000E+00  0.00000000E+00
  0.00000000E+00  0.00000000E+00  0.00000000E+00
  0.00000000E+00  0.00000000E+00  0.00000000E+00
  0.00000000E+00  0.00000000E+00  0.00000000E+00
  0.00000000E+00  0.00000000E+00  0.00000000E+00
  0.00000000E+00  0.00000000E+00  0.00000000E+00
  0.00000000E+00  0.00000000E+00  0.00000000E+00
  0.00000000E+00  0.00000000E+00  0.00000000E+00
  0.00000000E+00  0.00000000E+00  0.00000000E+00
  0.00000000E+00  0.00000000E+00  0.00000000E+00
  0.00000000E+00  0.00000000E+00  0.00000000E+00
  0.00000000E+00  0.00000000E+00  0.00000000E+00
  0.00000000E+00  0.00000000E+00  0.00000000E+00
  0.00000000E+00  0.00000000E+00  0.00000000E+00
  0.00000000E+00  0.00000000E+00  0.00000000E+00
  0.00000000E+00  0.00000000E+00  0.00000000E+00
  0.00000000E+00  0.00000000E+00  0.00000000E+00
  0.00000000E+00  0.00000000E+00  0.00000000E+00
  0.00000000E+00  0.00000000E+00  0.00000000E+00
  0.00000000E+00  0.00000000E+00  0.00000000E+00
  0.00000000E+00  0.00000000E+00  0.00000000E+00
  0.00000000E+00  0.00000000E+00  0.00000000E+00
  0.00000000E+00  0.00000000E+00  0.00000000E+00
  0.00000000E+00  0.00000000E+00  0.00000000E+00
  0.00000000E+00  0.00000000E+00  0.00000000E+00
  0.00000000E+00  0.00000000E+00  0.00000000E+00
  0.00000000E+00  0.00000000E+00  0.00000000E+00
  0.00000000E+00  0.00000000E+00  0.00000000E+00
  0.00000000E+00  0.00000000E+00  0.00000000E+00
  0.00000000E+00  0.00000000E+00  0.00000000E+00
  0.00000000E+00  0.00000000E+00  0.00000000E+00
  0.00000000E+00  0.00000000E+00  0.00000000E+00
  0.00000000E+00  0.00000000E+00  0.00000000E+00
  0.00000000E+00  0.00000000E+00  0.00000000E+00
  0.00000000E+00  0.00000000E+00  0.00000000E+00
  0.00000000E+00  0.00000000E+00  0.00000000E+00
