title                                   
    1.000000000000000     
    10.0246560288395195   -0.0138515721485014   -0.0078331036081219
    -0.0138610415292910   10.0493511279588397   -0.0053852738021561
    -0.0052083700172148   -0.0035516561061729    6.6535394387439917
   Hf   Nb   Ta   W 
     7    11    14     4
Direct
  0.6720344763169287 -0.0071361016564459  0.5231347522526326
  0.4958631495132104  0.8401203827502171  0.2464789963259871
  0.5035016392286236  0.1773484419801578  0.7570561479368787
  0.8408610938083474  0.8295178004256211  0.2422245473275493
  0.8310977116706153  0.1717757157375515  0.2508690104363493
  0.3330154756599885  0.6591503657058675 -0.0032273037141381
  0.3314996024765389  0.3386560372369265  0.4854285185190697
  0.0075747717934786  0.0027877110405637 -0.0054378395811021
  0.6699997900764476 -0.0037335715014264 -0.0232177665896098
  0.0044513832940463  0.0013228175419880  0.5064841274017131
  0.1564725557677862  0.4972955682534309  0.7443291743952609
  0.0027435559557861  0.6630822208842539  0.5051347175147044
  0.0041071911980338  0.6595994482406250 -0.0015621345084547
  0.8308043517830169  0.4942304575364493  0.2548358772427316
  0.1557866680989346  0.5032485212669375  0.2556539747553074
  0.1596423710936070  0.1656787568841089  0.2499831223094327
  0.1640329939846132  0.8369370852920890  0.7450041465977150
  0.4979896502114933  0.8309075358562228  0.7517764736071392
  0.8399009771186319  0.8220453237318613  0.7604958825166287
  0.8358640662648988  0.1791605306295784  0.7503863213557903
  0.0033311295567455  0.3354933443544222  0.0011156687353712
  0.3295840807125137  0.3405989629653428  0.0116840487284642
  0.5082071778296700  0.1698560404177310  0.2389427521564123
  0.6611937130132287  0.6583873453475582  0.0007785900230700
  0.6619969863371408  0.6629198568073368  0.5023455124901222
  0.1625280546340561  0.1685966376114130  0.7483791102244435
  0.3271915244500419  0.0060781224335997  0.4978472474844425
  0.5105324587072367  0.4907550397553028  0.7498713215120175
  0.8303456760176645  0.4940337184401699  0.7479694055266533
  0.1661433066805762  0.8348138527578689  0.2547744519285611
  0.3341301617974964  0.6604175731862207  0.5019183761064682
  0.3250319548663911  0.0027283697800712 -0.0030870467932902
  0.6676999343949799  0.3404910685576797  0.0035184245237729
  0.0013178384451963  0.3352811581419168  0.5026729663071114
  0.6650549096860839  0.3398404266674612  0.4953110585007562
  0.5084676175559492  0.4977134349393281  0.2501273664440393
 
  0.00000000E+00  0.00000000E+00  0.00000000E+00
  0.00000000E+00  0.00000000E+00  0.00000000E+00
  0.00000000E+00  0.00000000E+00  0.00000000E+00
  0.00000000E+00  0.00000000E+00  0.00000000E+00
  0.00000000E+00  0.00000000E+00  0.00000000E+00
  0.00000000E+00  0.00000000E+00  0.00000000E+00
  0.00000000E+00  0.00000000E+00  0.00000000E+00
  0.00000000E+00  0.00000000E+00  0.00000000E+00
  0.00000000E+00  0.00000000E+00  0.00000000E+00
  0.00000000E+00  0.00000000E+00  0.00000000E+00
  0.00000000E+00  0.00000000E+00  0.00000000E+00
  0.00000000E+00  0.00000000E+00  0.00000000E+00
  0.00000000E+00  0.00000000E+00  0.00000000E+00
  0.00000000E+00  0.00000000E+00  0.00000000E+00
  0.00000000E+00  0.00000000E+00  0.00000000E+00
  0.00000000E+00  0.00000000E+00  0.00000000E+00
  0.00000000E+00  0.00000000E+00  0.00000000E+00
  0.00000000E+00  0.00000000E+00  0.00000000E+00
  0.00000000E+00  0.00000000E+00  0.00000000E+00
  0.00000000E+00  0.00000000E+00  0.00000000E+00
  0.00000000E+00  0.00000000E+00  0.00000000E+00
  0.00000000E+00  0.00000000E+00  0.00000000E+00
  0.00000000E+00  0.00000000E+00  0.00000000E+00
  0.00000000E+00  0.00000000E+00  0.00000000E+00
  0.00000000E+00  0.00000000E+00  0.00000000E+00
  0.00000000E+00  0.00000000E+00  0.00000000E+00
  0.00000000E+00  0.00000000E+00  0.00000000E+00
  0.00000000E+00  0.00000000E+00  0.00000000E+00
  0.00000000E+00  0.00000000E+00  0.00000000E+00
  0.00000000E+00  0.00000000E+00  0.00000000E+00
  0.00000000E+00  0.00000000E+00  0.00000000E+00
  0.00000000E+00  0.00000000E+00  0.00000000E+00
  0.00000000E+00  0.00000000E+00  0.00000000E+00
  0.00000000E+00  0.00000000E+00  0.00000000E+00
  0.00000000E+00  0.00000000E+00  0.00000000E+00
  0.00000000E+00  0.00000000E+00  0.00000000E+00
