title                                   
    1.000000000000000     
     9.3402407145901112   -0.1524575223186096   -0.0888406474251103
    -0.1505546660187562    9.5280962466313603   -0.1465244127926714
    -0.0601465190890503   -0.0998558217134194    6.2807469544429830
   Cr   Ti   V    Zr
    14    11     4     7
Direct
 -0.0020336779690303 -0.0353752676658440  0.4970377447974859
  0.8319977190852881  0.8279149214717915  0.7236407961833349
  0.5034530819214799  0.1683577881082689  0.2267073089398096
  0.3386431552139569  0.3362845412688839 -0.0136552943050446
  0.1597019130136928  0.4978585307999750  0.7620811502207759
  0.8388923965262268  0.8307402847096808  0.2625226896622704
  0.0098701790616955  0.3650008835710158 -0.0213244797857515
  0.5009011773286081  0.1684853546355314  0.7703234267741711
  0.6429166508604951  0.3150503759179049 -0.0153395363394297
  0.5114944064865806  0.8470448565157914  0.2405069307657670
  0.1503470841007987  0.8330106491317304  0.7323214204179147
  0.3376088323136637  0.3387975604034366  0.5305848533910694
  0.6650944405456457 -0.0037089803311596  0.0157622717307843
  0.4748370792428641  0.4656662038103618  0.7689252675691384
  0.1654417717852036  0.4960717226229793  0.2448492665151190
  0.8286366134517373  0.4900525819688252  0.7392231550530310
  0.5227318754030941  0.8657237285063972  0.7628526399638861
  0.3428873766214647 -0.0049025279318297  0.0159073441338531
  0.0007937374054543  0.6691027225356376 -0.0048966170570298
  0.3236743336406882  0.6797844415626084  0.0023363926022796
  0.8370587865646173  0.4896368705820649  0.2455252719795337
  0.3524246112621767  0.0062131028305401  0.4825027123340152
  0.6626573252294409 -0.0058997249711794  0.4726978620093300
 -0.0065031587756897 -0.0416900181556377 -0.0099195374904805
  0.6374620097286001  0.3073038645930700  0.5109882244349938
  0.0012639983912747  0.6684776949380419  0.5105440124829180
  0.6914823172917718  0.6941803570633849  0.4846151065380576
  0.0164238927240501  0.3714241598548711  0.5196742024966999
  0.1536683420839419  0.8396425140869429  0.2745961761404501
  0.1700209114121758  0.1790348895831981  0.2491658353679203
  0.8353781157244269  0.1636699459050107  0.7541348107816152
  0.6633047196165984  0.6705639527464934 -0.0112507244860908
  0.1666093586428367  0.1700897708102489  0.7499576750824587
  0.8395020433920226  0.1701498509279787  0.2428629914380622
  0.4950699721994537  0.4890361709549982  0.2561748711047248
  0.3362866084726940  0.6772062266379877  0.5273637785523563
 
  0.00000000E+00  0.00000000E+00  0.00000000E+00
  0.00000000E+00  0.00000000E+00  0.00000000E+00
  0.00000000E+00  0.00000000E+00  0.00000000E+00
  0.00000000E+00  0.00000000E+00  0.00000000E+00
  0.00000000E+00  0.00000000E+00  0.00000000E+00
  0.00000000E+00  0.00000000E+00  0.00000000E+00
  0.00000000E+00  0.00000000E+00  0.00000000E+00
  0.00000000E+00  0.00000000E+00  0.00000000E+00
  0.00000000E+00  0.00000000E+00  0.00000000E+00
  0.00000000E+00  0.00000000E+00  0.00000000E+00
  0.00000000E+00  0.00000000E+00  0.00000000E+00
  0.00000000E+00  0.00000000E+00  0.00000000E+00
  0.00000000E+00  0.00000000E+00  0.00000000E+00
  0.00000000E+00  0.00000000E+00  0.00000000E+00
  0.00000000E+00  0.00000000E+00  0.00000000E+00
  0.00000000E+00  0.00000000E+00  0.00000000E+00
  0.00000000E+00  0.00000000E+00  0.00000000E+00
  0.00000000E+00  0.00000000E+00  0.00000000E+00
  0.00000000E+00  0.00000000E+00  0.00000000E+00
  0.00000000E+00  0.00000000E+00  0.00000000E+00
  0.00000000E+00  0.00000000E+00  0.00000000E+00
  0.00000000E+00  0.00000000E+00  0.00000000E+00
  0.00000000E+00  0.00000000E+00  0.00000000E+00
  0.00000000E+00  0.00000000E+00  0.00000000E+00
  0.00000000E+00  0.00000000E+00  0.00000000E+00
  0.00000000E+00  0.00000000E+00  0.00000000E+00
  0.00000000E+00  0.00000000E+00  0.00000000E+00
  0.00000000E+00  0.00000000E+00  0.00000000E+00
  0.00000000E+00  0.00000000E+00  0.00000000E+00
  0.00000000E+00  0.00000000E+00  0.00000000E+00
  0.00000000E+00  0.00000000E+00  0.00000000E+00
  0.00000000E+00  0.00000000E+00  0.00000000E+00
  0.00000000E+00  0.00000000E+00  0.00000000E+00
  0.00000000E+00  0.00000000E+00  0.00000000E+00
  0.00000000E+00  0.00000000E+00  0.00000000E+00
  0.00000000E+00  0.00000000E+00  0.00000000E+00
