title                                   
    1.000000000000000     
     9.1444773866633913   -0.0326713880919518   -0.0092911446033373
    -0.0326397850827631    9.1537459171976128   -0.0004553734618160
    -0.0061930134469177   -0.0003002217831495    6.1032595234510065
   Cr   Mo   Ta   V    W 
    15    11     3     3     4
Direct
  0.8383677969176825  0.8304626504742747  0.7536031860224557
  0.3360871475357058  0.3334880129683362  0.4905639113451016
  0.0024989079901332  0.3361994001412908  0.0011821955940413
  0.1597019371009843  0.8292532148901963  0.7519548713067880
  0.0024234256594312  0.6655381999216137 -0.0058529079258122
  0.0022914250363673  0.6667040751551085  0.5077950829423070
  0.4981114875037807  0.1747457991596875  0.2515802307375444
  0.1648043149293214  0.4957281712135378  0.2479398226456997
  0.1626310435967339  0.4976664033132748  0.7514408365389560
  0.3325858664850009  0.0032126288884201  0.4984611860799552
  0.3342906243506374  0.3348850671870032  0.0061302033840131
 -0.0018687488724484  0.0000615361090444 -0.0006783817058319
  0.6665583709287108  0.3311896258586059  0.0051490075569194
  0.4987707855900358  0.4886035583664375  0.2492071931460813
  0.8331484756027497  0.1722763899853190  0.2487734752492519
  0.8382785037666720  0.4989405159739945  0.7529876493521428
  0.4989003494212708  0.1714040488804843  0.7426446133256238
  0.3252548688200113  0.6585293025098996  0.4997673996754897
  0.1695904651957522  0.1723349110132057  0.7546746803330512
  0.1700890929951317  0.1713651862922356  0.2465948309405492
  0.6688273240012369  0.6642503710784344  0.4993763576598103
  0.8384437953987480  0.8308428718134235  0.2501654000998726
  0.4980446854900666  0.8369691091168082  0.2547246620394200
  0.3316685533291473  0.0026588179663088 -0.0010257020955518
  0.4985519565338205  0.4905663189197854  0.7461596036124498
  0.8372702994136939  0.4967932591430903  0.2458015931784496
  0.3272028818755013  0.6576954844512178 -0.0007013383899281
 -0.0029038791268853  0.0006909705385417  0.5095312647894483
  0.6719796467305272  0.0068873643852395  0.0025292798519263
  0.8353019548451405  0.1743172912658233  0.7589977055757847
  0.6650590312069689  0.3301980954493473  0.4906999436428749
  0.6683864995493480  0.0068113959596653  0.4979841891673666
  0.1613086966572011  0.8316453172371618  0.2509643613843061
  0.4975948310742296  0.8362233147617004  0.7421906394281523
  0.0030646504204993  0.3362911117298106  0.4990285053832457
  0.6676829320470913  0.6645702078816700 -0.0003455518719544
 
  0.00000000E+00  0.00000000E+00  0.00000000E+00
  0.00000000E+00  0.00000000E+00  0.00000000E+00
  0.00000000E+00  0.00000000E+00  0.00000000E+00
  0.00000000E+00  0.00000000E+00  0.00000000E+00
  0.00000000E+00  0.00000000E+00  0.00000000E+00
  0.00000000E+00  0.00000000E+00  0.00000000E+00
  0.00000000E+00  0.00000000E+00  0.00000000E+00
  0.00000000E+00  0.00000000E+00  0.00000000E+00
  0.00000000E+00  0.00000000E+00  0.00000000E+00
  0.00000000E+00  0.00000000E+00  0.00000000E+00
  0.00000000E+00  0.00000000E+00  0.00000000E+00
  0.00000000E+00  0.00000000E+00  0.00000000E+00
  0.00000000E+00  0.00000000E+00  0.00000000E+00
  0.00000000E+00  0.00000000E+00  0.00000000E+00
  0.00000000E+00  0.00000000E+00  0.00000000E+00
  0.00000000E+00  0.00000000E+00  0.00000000E+00
  0.00000000E+00  0.00000000E+00  0.00000000E+00
  0.00000000E+00  0.00000000E+00  0.00000000E+00
  0.00000000E+00  0.00000000E+00  0.00000000E+00
  0.00000000E+00  0.00000000E+00  0.00000000E+00
  0.00000000E+00  0.00000000E+00  0.00000000E+00
  0.00000000E+00  0.00000000E+00  0.00000000E+00
  0.00000000E+00  0.00000000E+00  0.00000000E+00
  0.00000000E+00  0.00000000E+00  0.00000000E+00
  0.00000000E+00  0.00000000E+00  0.00000000E+00
  0.00000000E+00  0.00000000E+00  0.00000000E+00
  0.00000000E+00  0.00000000E+00  0.00000000E+00
  0.00000000E+00  0.00000000E+00  0.00000000E+00
  0.00000000E+00  0.00000000E+00  0.00000000E+00
  0.00000000E+00  0.00000000E+00  0.00000000E+00
  0.00000000E+00  0.00000000E+00  0.00000000E+00
  0.00000000E+00  0.00000000E+00  0.00000000E+00
  0.00000000E+00  0.00000000E+00  0.00000000E+00
  0.00000000E+00  0.00000000E+00  0.00000000E+00
  0.00000000E+00  0.00000000E+00  0.00000000E+00
  0.00000000E+00  0.00000000E+00  0.00000000E+00
