title                                   
    1.000000000000000     
    10.4453569945316129   -0.0089207783811962   -0.0028994268327028
    -0.0092112765022381   10.3132023721015358    0.0364382027218874
    -0.0021808319159334    0.0242036903620093    7.0520928889662491
   Hf   Nb   Zr
    12    12    12
Direct
  0.8278944633530280  0.8150370693418891  0.2792391436529270
  0.4958905907019361  0.1678561870976793  0.2743826964672510
  0.5000522051146123  0.1403096088604081  0.7141102934911800
  0.5018505346609279  0.5131511263946403  0.2402802942142960
 -0.0091910983073573  0.6857898376211020 -0.0128167811433947
  0.1650805982334152  0.5025353710323125  0.2453213356261386
  0.6716036026578333  0.3387993138928725  0.5135647101925380
  0.6684987220913030 -0.0030274331260378  0.0173525005899925
  0.3557390959676801  0.3205153450530861 -0.0242916165419368
  0.3401714649596388  0.3541641261511124  0.5225662826371111
  0.8352399878871638  0.5047005004649135  0.2440941847527984
 -0.0089184212468970  0.0026856188698609  0.0043949224449562
  0.8337587290460050  0.1828862861617751  0.2389819848342699
  0.6758288987834034  0.0085032968532486  0.4659888165335005
  0.3357619457317035  0.6875999654745025  0.0169241561501433
  0.3345677040928470  0.6513292009674493  0.5017161115033125
  0.5022287458079786  0.8208243457173309  0.2624990125517345
  0.8290172827430484  0.1576452731405733  0.7446091812347012
 -0.0042688823670683  0.6475827392775730  0.5289279202490176
  0.8342078983289694  0.5076348876156885  0.7609118281937692
  0.3325997927126345 -0.0112082514580012  0.4647851777121797
  0.6695601570261023  0.6466151662673437  0.5091159450049384
  0.6728394744679295  0.6841815504461215  0.0043727162005638
 -0.0213576014125236  0.3211502015479781 -0.0192751834027701
  0.1742794196152504  0.8317884883564728  0.7306421503982597
  0.8222107932862724  0.8364237833202370  0.7242571917187138
  0.1689072583488420  0.1863064949025088  0.2384304234765614
  0.1648000344920043  0.5025008554487430  0.7825199318720367
  0.5036661660959607  0.5255326999881480  0.7740887672780021
 -0.0092680469294215  0.3343085309634545  0.5138258098048304
  0.1715087652157227  0.1586418442746013  0.7409998254385891
 -0.0075947024337196  0.0157859088980923  0.4790028072726848
  0.5015348390905336  0.8306983236424529  0.7395545343351543
  0.3372170657185380 -0.0097016894022042  0.0191643963662243
  0.6680102539243691  0.3247231742435321 -0.0160508948402201
  0.1660722625413334  0.8157302516985409  0.2758094237299447
 
  0.00000000E+00  0.00000000E+00  0.00000000E+00
  0.00000000E+00  0.00000000E+00  0.00000000E+00
  0.00000000E+00  0.00000000E+00  0.00000000E+00
  0.00000000E+00  0.00000000E+00  0.00000000E+00
  0.00000000E+00  0.00000000E+00  0.00000000E+00
  0.00000000E+00  0.00000000E+00  0.00000000E+00
  0.00000000E+00  0.00000000E+00  0.00000000E+00
  0.00000000E+00  0.00000000E+00  0.00000000E+00
  0.00000000E+00  0.00000000E+00  0.00000000E+00
  0.00000000E+00  0.00000000E+00  0.00000000E+00
  0.00000000E+00  0.00000000E+00  0.00000000E+00
  0.00000000E+00  0.00000000E+00  0.00000000E+00
  0.00000000E+00  0.00000000E+00  0.00000000E+00
  0.00000000E+00  0.00000000E+00  0.00000000E+00
  0.00000000E+00  0.00000000E+00  0.00000000E+00
  0.00000000E+00  0.00000000E+00  0.00000000E+00
  0.00000000E+00  0.00000000E+00  0.00000000E+00
  0.00000000E+00  0.00000000E+00  0.00000000E+00
  0.00000000E+00  0.00000000E+00  0.00000000E+00
  0.00000000E+00  0.00000000E+00  0.00000000E+00
  0.00000000E+00  0.00000000E+00  0.00000000E+00
  0.00000000E+00  0.00000000E+00  0.00000000E+00
  0.00000000E+00  0.00000000E+00  0.00000000E+00
  0.00000000E+00  0.00000000E+00  0.00000000E+00
  0.00000000E+00  0.00000000E+00  0.00000000E+00
  0.00000000E+00  0.00000000E+00  0.00000000E+00
  0.00000000E+00  0.00000000E+00  0.00000000E+00
  0.00000000E+00  0.00000000E+00  0.00000000E+00
  0.00000000E+00  0.00000000E+00  0.00000000E+00
  0.00000000E+00  0.00000000E+00  0.00000000E+00
  0.00000000E+00  0.00000000E+00  0.00000000E+00
  0.00000000E+00  0.00000000E+00  0.00000000E+00
  0.00000000E+00  0.00000000E+00  0.00000000E+00
  0.00000000E+00  0.00000000E+00  0.00000000E+00
  0.00000000E+00  0.00000000E+00  0.00000000E+00
  0.00000000E+00  0.00000000E+00  0.00000000E+00
