title                                   
    1.000000000000000     
     9.3980131957733306   -0.0472715740640034   -0.0863503094362759
    -0.0477245136256778    9.3917565591009993   -0.0454259143571456
    -0.0583903170094431   -0.0312065300415412    6.3561725569503196
   Cr   Mo   Nb   Ti   Zr
    11     4     3    15     3
Direct
  0.3193242625516520  0.6870701940303785 -0.0121009501009744
  0.8376356115118906  0.8280849969315364  0.7502910237779176
  0.6565021057268993  0.0096993065484150  0.4957911101569334
  0.3409201048745911  0.0031879809805281 -0.0064737632743393
  0.5018563543932311  0.5064400735481839  0.7443624970592068
  0.6532082248174412  0.0091692666940418 -0.0106688179434953
  0.1769389322948821  0.8199796985529253  0.2308640048935733
  0.5142202058968325  0.1550515336294877  0.7526043042341249
  0.0085631160040933  0.6713813429396319 -0.0066926097644688
  0.5010910239658853  0.1529354399595982  0.2350439818379618
  0.1782924079376377  0.8272426216774872  0.7821925264715772
  0.8222902490095044  0.1552227657632527  0.2486039972636585
  0.1627995271251809  0.5083398146836656  0.7705638374940541
  0.4997685306229629  0.8457844339287619  0.7614424339286081
  0.1741204247164999  0.1574144061008890  0.7579702970960539
  0.6637252330449511  0.6719785262670095  0.5177416810640174
  0.8378075507123318  0.5035213485532936  0.2414942867905869
 -0.0046522052823516  0.3240345435708948 -0.0014556841372914
  0.6532253055726066  0.6668259224162029 -0.0289144403045176
  0.6580828001018421  0.3229682651257596  0.4915554189606013
  0.3206754235786018  0.6851670422671052  0.5281141789852500
  0.0113480085077390 -0.0161699582770596 -0.0162077685245620
  0.0117778554782110  0.6757445059378376  0.5171501700854961
  0.0163791943917949 -0.0186818668063107  0.5185514169549591
  0.8182922101824058  0.1392064222714926  0.7410344045822344
  0.4951480192843025  0.8536960638019033  0.2413491970222676
  0.3450042738246210  0.3278816145080634 -0.0266319417110476
  0.6527201892850104  0.3256357398467037 -0.0119266568475433
  0.3423342621237259  0.0000059229010029  0.5178212569700974
  0.3457817794449028  0.3363915458785192  0.5338478423930315
 -0.0034164289798479  0.3278176495196227  0.5043485732054348
  0.8389281530799283  0.5069239031041870  0.7600505290812468
  0.1618591801393137  0.5120710297488941  0.2427349252848078
  0.4761349306919829  0.5175075925229287  0.2435025292675874
  0.8289285856596760  0.8366675546321992  0.2404566156091269
  0.1823845977090680  0.1638027562409667  0.2515895921378245
 
  0.00000000E+00  0.00000000E+00  0.00000000E+00
  0.00000000E+00  0.00000000E+00  0.00000000E+00
  0.00000000E+00  0.00000000E+00  0.00000000E+00
  0.00000000E+00  0.00000000E+00  0.00000000E+00
  0.00000000E+00  0.00000000E+00  0.00000000E+00
  0.00000000E+00  0.00000000E+00  0.00000000E+00
  0.00000000E+00  0.00000000E+00  0.00000000E+00
  0.00000000E+00  0.00000000E+00  0.00000000E+00
  0.00000000E+00  0.00000000E+00  0.00000000E+00
  0.00000000E+00  0.00000000E+00  0.00000000E+00
  0.00000000E+00  0.00000000E+00  0.00000000E+00
  0.00000000E+00  0.00000000E+00  0.00000000E+00
  0.00000000E+00  0.00000000E+00  0.00000000E+00
  0.00000000E+00  0.00000000E+00  0.00000000E+00
  0.00000000E+00  0.00000000E+00  0.00000000E+00
  0.00000000E+00  0.00000000E+00  0.00000000E+00
  0.00000000E+00  0.00000000E+00  0.00000000E+00
  0.00000000E+00  0.00000000E+00  0.00000000E+00
  0.00000000E+00  0.00000000E+00  0.00000000E+00
  0.00000000E+00  0.00000000E+00  0.00000000E+00
  0.00000000E+00  0.00000000E+00  0.00000000E+00
  0.00000000E+00  0.00000000E+00  0.00000000E+00
  0.00000000E+00  0.00000000E+00  0.00000000E+00
  0.00000000E+00  0.00000000E+00  0.00000000E+00
  0.00000000E+00  0.00000000E+00  0.00000000E+00
  0.00000000E+00  0.00000000E+00  0.00000000E+00
  0.00000000E+00  0.00000000E+00  0.00000000E+00
  0.00000000E+00  0.00000000E+00  0.00000000E+00
  0.00000000E+00  0.00000000E+00  0.00000000E+00
  0.00000000E+00  0.00000000E+00  0.00000000E+00
  0.00000000E+00  0.00000000E+00  0.00000000E+00
  0.00000000E+00  0.00000000E+00  0.00000000E+00
  0.00000000E+00  0.00000000E+00  0.00000000E+00
  0.00000000E+00  0.00000000E+00  0.00000000E+00
  0.00000000E+00  0.00000000E+00  0.00000000E+00
  0.00000000E+00  0.00000000E+00  0.00000000E+00
