title                                   
    1.000000000000000     
     9.7347754670422866    0.1398422050217723    0.0907887763316523
     0.1397078181153955    9.7190460784622168   -0.0227995753585596
     0.0606481656398201   -0.0153023245926521    6.5384066700204064
   Hf   Ti   V    Zr
    10     4    19     3
Direct
  0.1549228042583902  0.1694961478516100  0.2483038527433691
  0.5209765286308666  0.8450113454172744  0.7922290365571254
  0.1701074931705677  0.8594242688244996  0.2224202680003442
  0.5115395761683456  0.1612748907309526  0.2244779346745327
  0.8258903518836739  0.4849096397859347  0.2694553296933134
  0.8071751762666950  0.5085982071643671  0.7468092626231817
  0.3433547881581193  0.6628248606846132  0.5016022395037780
  0.0053096543872352  0.6847669732123850  0.5187165595563809
 -0.0131458946197733  0.6860361596556980 -0.0085961134372901
  0.3400572714532760  0.3390890917416856  0.5311510042281489
 -0.0276105064201953  0.3122888173009338 -0.0276451565031166
  0.5261982175689960  0.1593838313109021  0.7569203758624795
  0.1596606694878618  0.8739218593116749  0.7633385549448765
  0.5195046896898750  0.4867080383657909  0.2384575458837673
  0.6721908602889312  0.6800355403366766  0.0466193797124418
  0.1423734010215719  0.4705192749074321  0.7695132099679064
  0.5296631236413569  0.8219564211498754  0.2389151593989144
  0.3326372525275927  0.3231836416019469 -0.0272572455283249
 -0.0231542789436041  0.0081618505284197  0.5008237826451895
  0.6819186142852767  0.3179369572993361 -0.0061980182344589
  0.5203195052703807  0.4755158416431323  0.7710372192370186
  0.8249184791195061  0.8531242111659190  0.7380915824813202
  0.8275062416312746  0.1626729525860116  0.7337934850266229
  0.3210650414360197  0.0405892718579433 -0.0363116130494225
  0.7059765165269664 -0.0028448528428460  0.0091045701763052
  0.1489011763960284  0.1621040678807321  0.7433821537140648
 -0.0052656238115726  0.3127302865816125  0.5434372367304866
  0.6592572902665979  0.6852412318887060  0.4781076129028834
 -0.0184920549813101  0.0160316191262078 -0.0108051799522676
  0.8299874080649764  0.1601678713687990  0.2567399261382740
  0.6484849930359305  0.3252168971339594  0.5123739840382991
  0.6871605744917599 -0.0064046690421110  0.4894379600312949
  0.8284828147082909  0.8527682983812759  0.2668206218802145
  0.3557883871398009 -0.0176271683373330  0.4973667952270096
  0.3296765523141034  0.6426069016651065 -0.0339356018000102
  0.1566629054861875  0.4825794217608770  0.2413022849253454
 
  0.00000000E+00  0.00000000E+00  0.00000000E+00
  0.00000000E+00  0.00000000E+00  0.00000000E+00
  0.00000000E+00  0.00000000E+00  0.00000000E+00
  0.00000000E+00  0.00000000E+00  0.00000000E+00
  0.00000000E+00  0.00000000E+00  0.00000000E+00
  0.00000000E+00  0.00000000E+00  0.00000000E+00
  0.00000000E+00  0.00000000E+00  0.00000000E+00
  0.00000000E+00  0.00000000E+00  0.00000000E+00
  0.00000000E+00  0.00000000E+00  0.00000000E+00
  0.00000000E+00  0.00000000E+00  0.00000000E+00
  0.00000000E+00  0.00000000E+00  0.00000000E+00
  0.00000000E+00  0.00000000E+00  0.00000000E+00
  0.00000000E+00  0.00000000E+00  0.00000000E+00
  0.00000000E+00  0.00000000E+00  0.00000000E+00
  0.00000000E+00  0.00000000E+00  0.00000000E+00
  0.00000000E+00  0.00000000E+00  0.00000000E+00
  0.00000000E+00  0.00000000E+00  0.00000000E+00
  0.00000000E+00  0.00000000E+00  0.00000000E+00
  0.00000000E+00  0.00000000E+00  0.00000000E+00
  0.00000000E+00  0.00000000E+00  0.00000000E+00
  0.00000000E+00  0.00000000E+00  0.00000000E+00
  0.00000000E+00  0.00000000E+00  0.00000000E+00
  0.00000000E+00  0.00000000E+00  0.00000000E+00
  0.00000000E+00  0.00000000E+00  0.00000000E+00
  0.00000000E+00  0.00000000E+00  0.00000000E+00
  0.00000000E+00  0.00000000E+00  0.00000000E+00
  0.00000000E+00  0.00000000E+00  0.00000000E+00
  0.00000000E+00  0.00000000E+00  0.00000000E+00
  0.00000000E+00  0.00000000E+00  0.00000000E+00
  0.00000000E+00  0.00000000E+00  0.00000000E+00
  0.00000000E+00  0.00000000E+00  0.00000000E+00
  0.00000000E+00  0.00000000E+00  0.00000000E+00
  0.00000000E+00  0.00000000E+00  0.00000000E+00
  0.00000000E+00  0.00000000E+00  0.00000000E+00
  0.00000000E+00  0.00000000E+00  0.00000000E+00
  0.00000000E+00  0.00000000E+00  0.00000000E+00
