title                                   
    1.000000000000000     
     9.7071646771415416   -0.0176940435957906   -0.0156083091793978
    -0.0176840726008891    9.7280307495369556   -0.0136584881864121
    -0.0103789383719009   -0.0090910669557998    6.4803309164534628
   Hf   Mo   Ta   Ti   W 
     3     3     4    15    11
Direct
  0.8166999784909090  0.1715331754466805  0.7502091226163682
  0.0049891518630884 -0.0046163599480502  0.0044955520072872
  0.0005645108839018  0.0003479091956779  0.4985879731012057
  0.1786395508738679  0.1724490865310168  0.2523219337504243
  0.3360979082626392  0.0019011396014712  0.4961364799120760
  0.3382943123784829  0.6605104664758268  0.5003882848352590
  0.0088614117755292  0.3331334823077641  0.4930011995005151
  0.6596052152054591  0.3449177588250730  0.0150274826952059
  0.4966609799099264  0.1622747223744521  0.7503046721057183
  0.1745360127486835  0.8166995987751196  0.2719746611670878
  0.6595022556737862  0.3534380058464441  0.4772067906088163
  0.1879752572902380  0.1711925273337534  0.7512940230435042
  0.4994936941027248  0.5076164714042638  0.7503099291294815
  0.8348681334047109  0.5019737527809119  0.7498421472022329
  0.3298454618759347  0.3356036588660947  0.4956644780783369
 -0.0026190284695291  0.6644493510019113 -0.0005498726451495
  0.1823089215216148  0.8247108820827498  0.7308167213572405
  0.8141565350111166  0.1622675750035963  0.2467601064541364
  0.3307421108341376 -0.0037724191477819  0.0089899731611742
  0.5036767980754274  0.1603673525889990  0.2523866927901594
  0.0051572936799234  0.3385706384901141  0.0091359098132120
  0.4977414994354906  0.8339811121078408  0.7456074770763704
  0.1681167859859176  0.5079801600320569  0.2548456501555311
  0.3373926995552574  0.6659407587805057  0.0012196730854174
  0.6693864429012563  0.6665305558260185  0.4921067447541910
  0.6599356772647201 -0.0080352102846353  0.0029140277644294
  0.8374665782261900  0.5029933375456840  0.2496368394169511
  0.8248235307177428  0.8263859062087706  0.7491029260289802
  0.8269258821708403  0.8291470442778138  0.2475804401878213
  0.6675817739270147  0.6682447825510965  0.0049406431620565
 -0.0071155215559761  0.6654444839230325  0.5030440028405995
  0.1672007731230954  0.5000210540758105  0.7492639466220605
  0.3314531393682884  0.3377105229201486  0.0041471372199482
  0.6662818338800954 -0.0136523023515999  0.4944873784997448
  0.4925835646773663  0.5047566748758131  0.2447164488206993
  0.5001688749301291  0.8369823436755562  0.2520824036809072
 
  0.00000000E+00  0.00000000E+00  0.00000000E+00
  0.00000000E+00  0.00000000E+00  0.00000000E+00
  0.00000000E+00  0.00000000E+00  0.00000000E+00
  0.00000000E+00  0.00000000E+00  0.00000000E+00
  0.00000000E+00  0.00000000E+00  0.00000000E+00
  0.00000000E+00  0.00000000E+00  0.00000000E+00
  0.00000000E+00  0.00000000E+00  0.00000000E+00
  0.00000000E+00  0.00000000E+00  0.00000000E+00
  0.00000000E+00  0.00000000E+00  0.00000000E+00
  0.00000000E+00  0.00000000E+00  0.00000000E+00
  0.00000000E+00  0.00000000E+00  0.00000000E+00
  0.00000000E+00  0.00000000E+00  0.00000000E+00
  0.00000000E+00  0.00000000E+00  0.00000000E+00
  0.00000000E+00  0.00000000E+00  0.00000000E+00
  0.00000000E+00  0.00000000E+00  0.00000000E+00
  0.00000000E+00  0.00000000E+00  0.00000000E+00
  0.00000000E+00  0.00000000E+00  0.00000000E+00
  0.00000000E+00  0.00000000E+00  0.00000000E+00
  0.00000000E+00  0.00000000E+00  0.00000000E+00
  0.00000000E+00  0.00000000E+00  0.00000000E+00
  0.00000000E+00  0.00000000E+00  0.00000000E+00
  0.00000000E+00  0.00000000E+00  0.00000000E+00
  0.00000000E+00  0.00000000E+00  0.00000000E+00
  0.00000000E+00  0.00000000E+00  0.00000000E+00
  0.00000000E+00  0.00000000E+00  0.00000000E+00
  0.00000000E+00  0.00000000E+00  0.00000000E+00
  0.00000000E+00  0.00000000E+00  0.00000000E+00
  0.00000000E+00  0.00000000E+00  0.00000000E+00
  0.00000000E+00  0.00000000E+00  0.00000000E+00
  0.00000000E+00  0.00000000E+00  0.00000000E+00
  0.00000000E+00  0.00000000E+00  0.00000000E+00
  0.00000000E+00  0.00000000E+00  0.00000000E+00
  0.00000000E+00  0.00000000E+00  0.00000000E+00
  0.00000000E+00  0.00000000E+00  0.00000000E+00
  0.00000000E+00  0.00000000E+00  0.00000000E+00
  0.00000000E+00  0.00000000E+00  0.00000000E+00
