title                                   
    1.000000000000000     
     9.9073708156272193    0.0492493087612489    0.0471622040120168
     0.0494653919016758    9.8827026969032712    0.0101232077299304
     0.0315500960393651    0.0064238396021290    6.6953498051374973
   Hf   Mo   Nb   Ti
     7     4    11    14
Direct
  0.3267951104343642 -0.0001603324127238  0.4960189572281598
  0.5064639944768778  0.4854384579034034  0.7471663318982138
  0.3320926319015728  0.6675451175425449  0.4986500960686708
  0.5075097066577396  0.1693467044060750  0.7474044063697557
  0.8202750500481708  0.1616450917218778  0.7361478667331145
  0.1520614301359060  0.8310987359621935  0.2228327141918666
  0.0058400033746056  0.6614365520161010  0.5259560879227708
  0.5068824325989507  0.8327824963441618  0.2512334381982901
  0.8319836592235207  0.5018241895913873  0.7536614294218472
  0.6590008726507952 -0.0078942766950710  0.4837625580422611
  0.1709694592013040  0.4931793480294427  0.7588477796212176
  0.6685629804469396  0.6624742466769122  0.4951419019747159
  0.8341284799581673  0.1610880102379129  0.2572986512274411
  0.3371129207046060  0.6570851171853288 -0.0021194118662167
 -0.0211180885193887  0.0064008911362809  0.0019686429238580
  0.5069471580620645  0.8279951269652839  0.7535103430372023
  0.4996533716715131  0.4924217070782726  0.2447157719491796
 -0.0077261700896504  0.6590624617337713 -0.0282536139815292
  0.3511151438562922 -0.0044899761507660  0.0173943782999719
 -0.0022020273916736  0.3389621657048986 -0.0116577438409625
  0.6681541015595749  0.6705251218089630  0.0003848578209157
  0.3158109348724609  0.3308346210900345  0.5029349289993279
  0.6902935442104483  0.3494851946056724  0.4726007914830188
  0.1656864235071933  0.8434035399823818  0.7850251972572251
  0.3189513245301445  0.3391886695886938 -0.0043095346180356
  0.0154060198024125  0.0053918925677196  0.5049865703535718
  0.0043405412217871  0.3387752096126689  0.5106151703419806
  0.8506199678776507  0.5153579162892035  0.2389933161664421
  0.8328477694934895  0.8352964718729524  0.2608014702511656
  0.5082417890345513  0.1731165849571455  0.2583791148489034
  0.6876504757132293  0.3440519282627832  0.0177638384940420
  0.8207597245631941  0.8458275231036066  0.7335692137549786
  0.1574671818354801  0.1702458289371958  0.2266291568627603
  0.1588574394850096  0.4974809685181563  0.2406710394561604
  0.1618408392053747  0.1579112750470100  0.7825229962440433
  0.6567238036853215 -0.0141345812214776  0.0187512868636725
 
  0.00000000E+00  0.00000000E+00  0.00000000E+00
  0.00000000E+00  0.00000000E+00  0.00000000E+00
  0.00000000E+00  0.00000000E+00  0.00000000E+00
  0.00000000E+00  0.00000000E+00  0.00000000E+00
  0.00000000E+00  0.00000000E+00  0.00000000E+00
  0.00000000E+00  0.00000000E+00  0.00000000E+00
  0.00000000E+00  0.00000000E+00  0.00000000E+00
  0.00000000E+00  0.00000000E+00  0.00000000E+00
  0.00000000E+00  0.00000000E+00  0.00000000E+00
  0.00000000E+00  0.00000000E+00  0.00000000E+00
  0.00000000E+00  0.00000000E+00  0.00000000E+00
  0.00000000E+00  0.00000000E+00  0.00000000E+00
  0.00000000E+00  0.00000000E+00  0.00000000E+00
  0.00000000E+00  0.00000000E+00  0.00000000E+00
  0.00000000E+00  0.00000000E+00  0.00000000E+00
  0.00000000E+00  0.00000000E+00  0.00000000E+00
  0.00000000E+00  0.00000000E+00  0.00000000E+00
  0.00000000E+00  0.00000000E+00  0.00000000E+00
  0.00000000E+00  0.00000000E+00  0.00000000E+00
  0.00000000E+00  0.00000000E+00  0.00000000E+00
  0.00000000E+00  0.00000000E+00  0.00000000E+00
  0.00000000E+00  0.00000000E+00  0.00000000E+00
  0.00000000E+00  0.00000000E+00  0.00000000E+00
  0.00000000E+00  0.00000000E+00  0.00000000E+00
  0.00000000E+00  0.00000000E+00  0.00000000E+00
  0.00000000E+00  0.00000000E+00  0.00000000E+00
  0.00000000E+00  0.00000000E+00  0.00000000E+00
  0.00000000E+00  0.00000000E+00  0.00000000E+00
  0.00000000E+00  0.00000000E+00  0.00000000E+00
  0.00000000E+00  0.00000000E+00  0.00000000E+00
  0.00000000E+00  0.00000000E+00  0.00000000E+00
  0.00000000E+00  0.00000000E+00  0.00000000E+00
  0.00000000E+00  0.00000000E+00  0.00000000E+00
  0.00000000E+00  0.00000000E+00  0.00000000E+00
  0.00000000E+00  0.00000000E+00  0.00000000E+00
  0.00000000E+00  0.00000000E+00  0.00000000E+00
