title                                   
    1.000000000000000     
     9.6433826602289958    0.0032713109860955    0.0155467294541004
     0.0032598478144072    9.6227197503267501    0.0084695839858468
     0.0103524220014212    0.0056522172113389    6.4208553182949508
   Nb   Ta   Ti   V    W 
     7     7     7     7     8
Direct
  0.1643072568294947  0.4974837779205487  0.2422723330179024
  0.6702238528938510  0.6701249312595932  0.4998853470027576
 -0.0028702096595593  0.6635513892315131  0.5094683374638170
 -0.0071670024375201 -0.0070212081854358 -0.0022711232900939
  0.4960225912530932  0.1640184434871202  0.7497560353117653
  0.6687445203661490  0.3327835814247572  0.5011382825526479
  0.6746083264311747  0.6674137561654180 -0.0038166473962897
  0.5017071542936162  0.5009934738533833  0.2431556886287724
 -0.0004480009956822  0.3391648199923392  0.5113869899642239
  0.8417905042068167  0.1717146042898967  0.2477466171888152
  0.1697850050041174  0.8380927712230253  0.2533436962399238
  0.6673912463458287  0.0006115142968223  0.0035356365098127
  0.3331723930648643  0.6632407326795581  0.5033921492698935
  0.3312199102804816  0.3345474220032661  0.5024605876644593
  0.1731200026181184  0.8414568410902532  0.7516721467981686
  0.4932216879720199  0.8331889128639264  0.7558452686376023
 -0.0047370832436893  0.6610663540194993 -0.0047259452233621
  0.6706936806756399  0.3331788951147026 -0.0080722304522807
  0.1678787389318802  0.1617099369290882  0.2477529889699335
  0.1670414135552337  0.1631611498822591  0.7581043364543165
  0.6657731419854004 -0.0019096050656490  0.4923332103325888
  0.4928047668187385  0.8363333879920203  0.2433097767526927
  0.4870043624926523  0.1625006431483109  0.2449853032429798
 -0.0098426845898394  0.3473683972420535 -0.0090765520568394
  0.8332227595762395  0.4963166790404133  0.2499901795957907
  0.1673508489148816  0.4929291034208894  0.7619321213801743
  0.8361480380111769  0.8333907102945122  0.7451612621220234
  0.8375258992666352  0.4994219197169472  0.7504618474322688
  0.3409514900604161  0.0005581209471429  0.0072072313555347
  0.4980792658809712  0.5026337306134745  0.7530710889469227
  0.3432136639268274  0.0022509472431573  0.4942142457340977
  0.3356375801306538  0.3336158198317939 -0.0022066984267251
  0.8380396130959425  0.1670680071617925  0.7491180135094011
 -0.0082079115493478 -0.0012548593586685  0.5037797377344406
  0.8346849954778555  0.8333097339170544  0.2532853919632355
  0.3319081821148679  0.6649851643132187  0.0004033450686284
 
  0.00000000E+00  0.00000000E+00  0.00000000E+00
  0.00000000E+00  0.00000000E+00  0.00000000E+00
  0.00000000E+00  0.00000000E+00  0.00000000E+00
  0.00000000E+00  0.00000000E+00  0.00000000E+00
  0.00000000E+00  0.00000000E+00  0.00000000E+00
  0.00000000E+00  0.00000000E+00  0.00000000E+00
  0.00000000E+00  0.00000000E+00  0.00000000E+00
  0.00000000E+00  0.00000000E+00  0.00000000E+00
  0.00000000E+00  0.00000000E+00  0.00000000E+00
  0.00000000E+00  0.00000000E+00  0.00000000E+00
  0.00000000E+00  0.00000000E+00  0.00000000E+00
  0.00000000E+00  0.00000000E+00  0.00000000E+00
  0.00000000E+00  0.00000000E+00  0.00000000E+00
  0.00000000E+00  0.00000000E+00  0.00000000E+00
  0.00000000E+00  0.00000000E+00  0.00000000E+00
  0.00000000E+00  0.00000000E+00  0.00000000E+00
  0.00000000E+00  0.00000000E+00  0.00000000E+00
  0.00000000E+00  0.00000000E+00  0.00000000E+00
  0.00000000E+00  0.00000000E+00  0.00000000E+00
  0.00000000E+00  0.00000000E+00  0.00000000E+00
  0.00000000E+00  0.00000000E+00  0.00000000E+00
  0.00000000E+00  0.00000000E+00  0.00000000E+00
  0.00000000E+00  0.00000000E+00  0.00000000E+00
  0.00000000E+00  0.00000000E+00  0.00000000E+00
  0.00000000E+00  0.00000000E+00  0.00000000E+00
  0.00000000E+00  0.00000000E+00  0.00000000E+00
  0.00000000E+00  0.00000000E+00  0.00000000E+00
  0.00000000E+00  0.00000000E+00  0.00000000E+00
  0.00000000E+00  0.00000000E+00  0.00000000E+00
  0.00000000E+00  0.00000000E+00  0.00000000E+00
  0.00000000E+00  0.00000000E+00  0.00000000E+00
  0.00000000E+00  0.00000000E+00  0.00000000E+00
  0.00000000E+00  0.00000000E+00  0.00000000E+00
  0.00000000E+00  0.00000000E+00  0.00000000E+00
  0.00000000E+00  0.00000000E+00  0.00000000E+00
  0.00000000E+00  0.00000000E+00  0.00000000E+00
