title                                   
    1.000000000000000     
     9.8228561852583400    0.0004278041023413   -0.0348433402114239
    -0.0001461609134600    9.5766663411904709    0.0838128552596384
    -0.0228643189409354    0.0561652321486769    6.4056954384790945
   Cr   Hf   Nb   V 
     4     7    14    11
Direct
  0.8783326171195546  0.4946750128729566  0.2375301755011416
  0.1672354433023048  0.8298061900886559  0.2375674413408596
  0.1759922738133197  0.4911474143342723  0.7628062724176164
  0.1707534193456295  0.1816745751206873  0.7540093900265450
  0.6736315504220702  0.0133688200643055  0.4869474830546148
  0.0087748664740435  0.0020916859435826  0.4977145471100608
  0.8475937934845911  0.5005171252722762  0.7796848822043578
  0.4903309951556773  0.8274364545078353  0.7445744960260888
  0.8326027949732582  0.8156390552150595  0.2307702251656688
  0.0254958371092948  0.6639387027330544  0.5047063059641946
  0.6731154354107091  0.3488004277739459  0.4777148854262797
  0.6635763107864785  0.0089018912198498 -0.0073844203848155
  0.8417433159480379  0.1763140555757292  0.7628051000799326
  0.6479416399039858  0.6382883125557826  0.0258863193865103
  0.4810107091325735  0.1782244586501807  0.2389844182470828
  0.6578098774768151  0.3366353279971193  0.0064082999995686
  0.0096291283292198  0.0007133216611813 -0.0021797978929518
  0.4900892815376073  0.8277624171037956  0.2531065406600180
  0.6561261078277556  0.6516375720375690  0.4986951178386810
  0.3208588043425641  0.6600296332641993  0.0048748686144726
  0.3183203285779642  0.0054512601068407 -0.0041201930510763
  0.0133257276333710  0.3332598114376935  0.4983360339624421
  0.8305143594024528  0.8230257447260025  0.7637217526106795
  0.4867694532694473  0.1786022694514448  0.7411911042318206
  0.3158229243622125  0.0061358658019685  0.4913942731547464
  0.4834959049569101  0.5023163786918559  0.7490325226494968
  0.3218331636414929  0.3419887363735186  0.5131284244192178
  0.4619356412528988  0.5007671554222463  0.2645248821795223
  0.3167179144911316  0.3378361338657234 -0.0197539545571827
  0.1627641804563172  0.1803925625410273  0.2362045866833582
  0.0204492701541889  0.3335237794426764  0.0091826043384110
  0.8515649080549299  0.1789010011503163  0.2210975252039107
  0.1806368877718360  0.8285681014179054  0.7614675878701460
  0.0247085081373923  0.6550623685116345  0.0241664670905618
  0.3229362449554212  0.6574438948353098  0.5039766506168957
  0.1755603809865451  0.4891224822317967  0.2512271818111235
 
  0.00000000E+00  0.00000000E+00  0.00000000E+00
  0.00000000E+00  0.00000000E+00  0.00000000E+00
  0.00000000E+00  0.00000000E+00  0.00000000E+00
  0.00000000E+00  0.00000000E+00  0.00000000E+00
  0.00000000E+00  0.00000000E+00  0.00000000E+00
  0.00000000E+00  0.00000000E+00  0.00000000E+00
  0.00000000E+00  0.00000000E+00  0.00000000E+00
  0.00000000E+00  0.00000000E+00  0.00000000E+00
  0.00000000E+00  0.00000000E+00  0.00000000E+00
  0.00000000E+00  0.00000000E+00  0.00000000E+00
  0.00000000E+00  0.00000000E+00  0.00000000E+00
  0.00000000E+00  0.00000000E+00  0.00000000E+00
  0.00000000E+00  0.00000000E+00  0.00000000E+00
  0.00000000E+00  0.00000000E+00  0.00000000E+00
  0.00000000E+00  0.00000000E+00  0.00000000E+00
  0.00000000E+00  0.00000000E+00  0.00000000E+00
  0.00000000E+00  0.00000000E+00  0.00000000E+00
  0.00000000E+00  0.00000000E+00  0.00000000E+00
  0.00000000E+00  0.00000000E+00  0.00000000E+00
  0.00000000E+00  0.00000000E+00  0.00000000E+00
  0.00000000E+00  0.00000000E+00  0.00000000E+00
  0.00000000E+00  0.00000000E+00  0.00000000E+00
  0.00000000E+00  0.00000000E+00  0.00000000E+00
  0.00000000E+00  0.00000000E+00  0.00000000E+00
  0.00000000E+00  0.00000000E+00  0.00000000E+00
  0.00000000E+00  0.00000000E+00  0.00000000E+00
  0.00000000E+00  0.00000000E+00  0.00000000E+00
  0.00000000E+00  0.00000000E+00  0.00000000E+00
  0.00000000E+00  0.00000000E+00  0.00000000E+00
  0.00000000E+00  0.00000000E+00  0.00000000E+00
  0.00000000E+00  0.00000000E+00  0.00000000E+00
  0.00000000E+00  0.00000000E+00  0.00000000E+00
  0.00000000E+00  0.00000000E+00  0.00000000E+00
  0.00000000E+00  0.00000000E+00  0.00000000E+00
  0.00000000E+00  0.00000000E+00  0.00000000E+00
  0.00000000E+00  0.00000000E+00  0.00000000E+00
