title                                   
    1.000000000000000     
     9.9589679077050519   -0.0266180701342999   -0.1219011269196622
    -0.0262455415929258    9.9559351861922796   -0.0256449697061661
    -0.0814464016066104   -0.0168898589345176    6.7673066974390776
   Hf   Nb   Ta   Ti
     7     4    11    14
Direct
 -0.0079621837042168 -0.0057470316565236  0.0113297184881195
  0.3498862291162059  0.6661294316083547  0.4974774860295900
  0.6478245710587048  0.0039847368584495  0.5188371599561346
  0.6753213808854305  0.6699907119514561 -0.0202646422395060
  0.8158118527115612  0.1788897368781925  0.2457763662274744
  0.1720373122893238  0.8405283590358400  0.7406683608394588
 -0.0065273283289494  0.6661378017085764  0.0055265294124749
  0.1684127799918467  0.1748442874915816  0.2518045007567107
  0.3305521069116898  0.3330555768615951  0.0062247731373479
  0.8409178623954751  0.4962777201972414  0.7186456933972952
  0.1642625716270206  0.8309712668883221  0.2767617304347209
  0.4870371548389831  0.4910882166244810  0.7665251187768920
  0.3335435706660417  0.6649021936955747  0.0168199889358828
  0.8438816554411896  0.1675199138823547  0.7390369694859192
  0.8202435474296883  0.4891291414787334  0.2591700605152121
 -0.0053664355664250  0.3378912831423505 -0.0109311361529627
  0.5114885169165855  0.4929139527422350  0.2403745348925151
  0.1744404991964539  0.4960705093646715  0.7559237660557948
  0.4806883118514536  0.8488606013404334  0.7881959343396294
  0.1728885654449834  0.4925875198566563  0.2425854467281800
  0.3386513744427725  0.3278243181915312  0.5015194230942176
  0.0052420400885223  0.0135933693719889  0.4845202086231445
  0.6761083729806028  0.3420733672455252 -0.0413651348765357
  0.4821978005987283  0.1615277401925254  0.7873127382186828
  0.5051918165925872  0.1747165719750051  0.2279016956785135
  0.6824020967163330 -0.0106008081006584 -0.0253863007777128
  0.0040699343524980  0.6497201085316873  0.4802376481769062
  0.1675839987846423  0.1665657183724323  0.7534333957519294
  0.8259155456276117  0.8337745409379199  0.2817480895757359
  0.5128217359506698  0.8358533561662076  0.2280322938801879
  0.6505749664427236  0.3280463417539239  0.5265618952459798
  0.8488587375637162  0.8359543191059298  0.7022461558666968
  0.3203311559358827 -0.0022792759075268  0.0506082476874813
  0.3407856332994717  0.0083568748513149  0.4836605334562433
  0.0116113155021230  0.3353300452306870  0.4961969488208381
  0.6582709339480702  0.6635174821309310  0.5122838015608068
 
  0.00000000E+00  0.00000000E+00  0.00000000E+00
  0.00000000E+00  0.00000000E+00  0.00000000E+00
  0.00000000E+00  0.00000000E+00  0.00000000E+00
  0.00000000E+00  0.00000000E+00  0.00000000E+00
  0.00000000E+00  0.00000000E+00  0.00000000E+00
  0.00000000E+00  0.00000000E+00  0.00000000E+00
  0.00000000E+00  0.00000000E+00  0.00000000E+00
  0.00000000E+00  0.00000000E+00  0.00000000E+00
  0.00000000E+00  0.00000000E+00  0.00000000E+00
  0.00000000E+00  0.00000000E+00  0.00000000E+00
  0.00000000E+00  0.00000000E+00  0.00000000E+00
  0.00000000E+00  0.00000000E+00  0.00000000E+00
  0.00000000E+00  0.00000000E+00  0.00000000E+00
  0.00000000E+00  0.00000000E+00  0.00000000E+00
  0.00000000E+00  0.00000000E+00  0.00000000E+00
  0.00000000E+00  0.00000000E+00  0.00000000E+00
  0.00000000E+00  0.00000000E+00  0.00000000E+00
  0.00000000E+00  0.00000000E+00  0.00000000E+00
  0.00000000E+00  0.00000000E+00  0.00000000E+00
  0.00000000E+00  0.00000000E+00  0.00000000E+00
  0.00000000E+00  0.00000000E+00  0.00000000E+00
  0.00000000E+00  0.00000000E+00  0.00000000E+00
  0.00000000E+00  0.00000000E+00  0.00000000E+00
  0.00000000E+00  0.00000000E+00  0.00000000E+00
  0.00000000E+00  0.00000000E+00  0.00000000E+00
  0.00000000E+00  0.00000000E+00  0.00000000E+00
  0.00000000E+00  0.00000000E+00  0.00000000E+00
  0.00000000E+00  0.00000000E+00  0.00000000E+00
  0.00000000E+00  0.00000000E+00  0.00000000E+00
  0.00000000E+00  0.00000000E+00  0.00000000E+00
  0.00000000E+00  0.00000000E+00  0.00000000E+00
  0.00000000E+00  0.00000000E+00  0.00000000E+00
  0.00000000E+00  0.00000000E+00  0.00000000E+00
  0.00000000E+00  0.00000000E+00  0.00000000E+00
  0.00000000E+00  0.00000000E+00  0.00000000E+00
  0.00000000E+00  0.00000000E+00  0.00000000E+00
