title                                   
    1.000000000000000     
     9.5540413792025429   -0.0072618390172678   -0.0044738142264463
    -0.0072822828483036    9.5484747874533369   -0.0071059049966122
    -0.0029455181311771   -0.0048479503023161    6.4129045168805128
   Nb   Ti   V    W 
    14     7    11     4
Direct
 -0.0051893580763079  0.3401179407055352  0.5031455385373579
  0.1634659092427103  0.1668319597581575  0.2540500389330062
  0.5066726450626725  0.1698994859149975  0.2533996252319456
  0.3362086738045481  0.3474984436065469  0.5065626732633924
  0.3357710289480383 -0.0056457432630981  0.0000695860359728
  0.8357498045850077  0.8267381945116002  0.2570415392863826
  0.8329983647014743  0.1723793288218728  0.2513241044773576
  0.5104673888546050  0.1741935951714574  0.7470820818386865
  0.6642848750438947  0.6627454228025358 -0.0005129529261121
  0.5034991544765490  0.8276806287542076  0.7471006947428539
  0.0002352965797199  0.6668920787201085 -0.0180956892919628
  0.3380252543180100  0.3409495432477963 -0.0000391796681777
  0.3339365493374443 -0.0055699350089434  0.5026039084160688
  0.8238454579741252  0.4926398772870275  0.7484795826091003
  0.3297314552539509  0.6621861787432218  0.5096662221309148
  0.1672520732905183  0.8295007909242488  0.2494483155015149
  0.6787201134825311 -0.0004243092409443 -0.0049577731265669
  0.1619825134880444  0.5036197467169730  0.2300181505061208
 -0.0095591202938290 -0.0016366488125082 -0.0099079257713154
  0.1579582170061524  0.1684001112887492  0.7523467222773713
  0.0048909518606031  0.6649739510178031  0.5173219912891557
  0.6660291174484816  0.3415236625443681  0.4964120181660232
  0.8369011971254225  0.1685294254541519  0.7454378630557286
  0.8273441916933858  0.4928471685428868  0.2461902567773854
  0.6704010063842317  0.3361934282265022  0.0025287314100783
  0.8320335414724311  0.8381430678359508  0.7342250200450985
 -0.0104654460390909  0.3301306423625234  0.0004816699428118
  0.1698739562098138  0.4970550091561424  0.7763097956847516
  0.1658619510481525  0.8404539778409366  0.7476821766277919
  0.6589438561163116  0.6625656742566444  0.4934277319886514
  0.3371163442528735  0.6646086367093490 -0.0039837559342595
  0.5036552588768132  0.5016582327406727  0.7516904962868259
  0.4996861477708802  0.8283033238949855  0.2516412518251352
  0.6709607882287835 -0.0026955509423788  0.5004400140430114
  0.5036372982497959  0.5017941808421603  0.2513267164862896
 -0.0029264577787477 -0.0050815211322386  0.5100427593016086
 
  0.00000000E+00  0.00000000E+00  0.00000000E+00
  0.00000000E+00  0.00000000E+00  0.00000000E+00
  0.00000000E+00  0.00000000E+00  0.00000000E+00
  0.00000000E+00  0.00000000E+00  0.00000000E+00
  0.00000000E+00  0.00000000E+00  0.00000000E+00
  0.00000000E+00  0.00000000E+00  0.00000000E+00
  0.00000000E+00  0.00000000E+00  0.00000000E+00
  0.00000000E+00  0.00000000E+00  0.00000000E+00
  0.00000000E+00  0.00000000E+00  0.00000000E+00
  0.00000000E+00  0.00000000E+00  0.00000000E+00
  0.00000000E+00  0.00000000E+00  0.00000000E+00
  0.00000000E+00  0.00000000E+00  0.00000000E+00
  0.00000000E+00  0.00000000E+00  0.00000000E+00
  0.00000000E+00  0.00000000E+00  0.00000000E+00
  0.00000000E+00  0.00000000E+00  0.00000000E+00
  0.00000000E+00  0.00000000E+00  0.00000000E+00
  0.00000000E+00  0.00000000E+00  0.00000000E+00
  0.00000000E+00  0.00000000E+00  0.00000000E+00
  0.00000000E+00  0.00000000E+00  0.00000000E+00
  0.00000000E+00  0.00000000E+00  0.00000000E+00
  0.00000000E+00  0.00000000E+00  0.00000000E+00
  0.00000000E+00  0.00000000E+00  0.00000000E+00
  0.00000000E+00  0.00000000E+00  0.00000000E+00
  0.00000000E+00  0.00000000E+00  0.00000000E+00
  0.00000000E+00  0.00000000E+00  0.00000000E+00
  0.00000000E+00  0.00000000E+00  0.00000000E+00
  0.00000000E+00  0.00000000E+00  0.00000000E+00
  0.00000000E+00  0.00000000E+00  0.00000000E+00
  0.00000000E+00  0.00000000E+00  0.00000000E+00
  0.00000000E+00  0.00000000E+00  0.00000000E+00
  0.00000000E+00  0.00000000E+00  0.00000000E+00
  0.00000000E+00  0.00000000E+00  0.00000000E+00
  0.00000000E+00  0.00000000E+00  0.00000000E+00
  0.00000000E+00  0.00000000E+00  0.00000000E+00
  0.00000000E+00  0.00000000E+00  0.00000000E+00
  0.00000000E+00  0.00000000E+00  0.00000000E+00
