title                                   
    1.000000000000000     
     9.8712844561689934   -0.0497195793530204    0.0147080984592881
    -0.0498927099942451    9.7335126205187787    0.0148696498569359
     0.0098605952068519    0.0099374040611094    6.5511468364153940
   Hf   Mo   Nb   Ti   W 
     7     8     7     7     7
Direct
  0.4996013211061846  0.1670729942072899  0.7520145760080931
  0.1646051861445000  0.1569740956820280  0.7531488486342230
  0.1605671490307735  0.8400688188668000  0.7479358151114825
 -0.0072382757407166  0.6638520784073964  0.0155383899095347
  0.6632963040844171 -0.0080372248141384  0.4891359912676195
  0.1851698711225894  0.5061839803978633  0.2490325455280147
 -0.0071948346655493  0.3455423202613531  0.5052803503781622
  0.5051144187678105  0.8301381940313767  0.7545510769234499
  0.8301994395466398  0.8318242361927837  0.2489216897669529
 -0.0079706587665250 -0.0028120349566035  0.4908133385980769
  0.1688816196726624  0.8388606897214119  0.2516235113191429
  0.6647170490687760  0.6678118319719487  0.5043698424061251
  0.6681062641934089  0.3334088347510316  0.5014024138518732
  0.4985940003293747  0.1691783340279909  0.2404898023646045
  0.6649541883235645  0.6673189265573531 -0.0030796092259374
  0.3408794793733576  0.3355430887229153  0.0008091478063007
  0.3376824952760810 -0.0095548754913700  0.4830767973655611
  0.1773222349042508  0.5020901320126957  0.7529955328094101
  0.8300165456519424  0.1614923787211572  0.7567012725455593
  0.1634837236715277  0.1635455706401126  0.2447288165309820
  0.3393571775858955  0.3356869088372114  0.4971515350375550
  0.8304333688091495  0.1683260499623936  0.2442717172969648
  0.3513181129636898  0.6757221867842081 -0.0118225015382541
  0.5147731252820322  0.5020071465857633  0.2507856841294140
  0.3504985742759300  0.6734828546952911  0.5089341086043474
  0.8052157366489802  0.4983396521210853  0.2546690829630858
 -0.0107427855546023  0.3421834420873258 -0.0081703017411577
 -0.0102431201986211  0.6644015292119878  0.4953233299058419
  0.8346045285204013  0.8343710950671714  0.7551136191236757
  0.6689517294934291  0.3339390865662712 -0.0017090718885298
  0.8198851042758768  0.5040410844310725  0.7517437168670279
  0.5084580603401273  0.4972070654610777  0.7496903990540877
  0.3369664664710478 -0.0081479685366135  0.0125735179138987
 -0.0079414821819382 -0.0029480676517302  0.0113480861889412
  0.5036946300419615  0.8265990958186763  0.2413487500761572
  0.6639832521315712 -0.0057135313525882  0.0092581781077138
 
  0.00000000E+00  0.00000000E+00  0.00000000E+00
  0.00000000E+00  0.00000000E+00  0.00000000E+00
  0.00000000E+00  0.00000000E+00  0.00000000E+00
  0.00000000E+00  0.00000000E+00  0.00000000E+00
  0.00000000E+00  0.00000000E+00  0.00000000E+00
  0.00000000E+00  0.00000000E+00  0.00000000E+00
  0.00000000E+00  0.00000000E+00  0.00000000E+00
  0.00000000E+00  0.00000000E+00  0.00000000E+00
  0.00000000E+00  0.00000000E+00  0.00000000E+00
  0.00000000E+00  0.00000000E+00  0.00000000E+00
  0.00000000E+00  0.00000000E+00  0.00000000E+00
  0.00000000E+00  0.00000000E+00  0.00000000E+00
  0.00000000E+00  0.00000000E+00  0.00000000E+00
  0.00000000E+00  0.00000000E+00  0.00000000E+00
  0.00000000E+00  0.00000000E+00  0.00000000E+00
  0.00000000E+00  0.00000000E+00  0.00000000E+00
  0.00000000E+00  0.00000000E+00  0.00000000E+00
  0.00000000E+00  0.00000000E+00  0.00000000E+00
  0.00000000E+00  0.00000000E+00  0.00000000E+00
  0.00000000E+00  0.00000000E+00  0.00000000E+00
  0.00000000E+00  0.00000000E+00  0.00000000E+00
  0.00000000E+00  0.00000000E+00  0.00000000E+00
  0.00000000E+00  0.00000000E+00  0.00000000E+00
  0.00000000E+00  0.00000000E+00  0.00000000E+00
  0.00000000E+00  0.00000000E+00  0.00000000E+00
  0.00000000E+00  0.00000000E+00  0.00000000E+00
  0.00000000E+00  0.00000000E+00  0.00000000E+00
  0.00000000E+00  0.00000000E+00  0.00000000E+00
  0.00000000E+00  0.00000000E+00  0.00000000E+00
  0.00000000E+00  0.00000000E+00  0.00000000E+00
  0.00000000E+00  0.00000000E+00  0.00000000E+00
  0.00000000E+00  0.00000000E+00  0.00000000E+00
  0.00000000E+00  0.00000000E+00  0.00000000E+00
  0.00000000E+00  0.00000000E+00  0.00000000E+00
  0.00000000E+00  0.00000000E+00  0.00000000E+00
  0.00000000E+00  0.00000000E+00  0.00000000E+00
