title                                   
    1.000000000000000     
    10.0720999771546378   -0.0148102979535495   -0.0017439060935980
    -0.0146922665799407   10.0156636810424704   -0.0163962905709537
    -0.0010624078550282   -0.0108653963080825    6.6319045616276426
   Nb   Ta   W    Zr
     9     9     9     9
Direct
  0.5035404805523596  0.4952827236831791  0.2548451981869605
  0.3324564607399217  0.6619654757752118  0.5079896614445131
  0.1658157246257133  0.8367457085488932  0.2537424436315908
  0.6710655837278650 -0.0006809301750668  0.0172315564949419
  0.6514504972505611  0.6637230060862590 -0.0047272255668366
  0.0074034922098161  0.0034458679194425  0.0019103783314071
  0.8288147865900313  0.1721162356695713  0.2377127187349461
  0.0062843876331068  0.0024838937638794  0.4969735892605648
  0.1652610404403737  0.8356029924977039  0.7484383775014425
  0.1585163876230987  0.5060532896192561  0.7478496111108031
  0.1785468703462376  0.1582114773530626  0.2469965296204410
  0.1598702973923441  0.5066979105783913  0.2530066673079389
  0.4965153245015331  0.8364628798100394  0.7447590542199465
  0.8430715091716895  0.8204337421279553  0.2476239433283161
  0.4954308671541834  0.1695283010384205  0.2469952890461671
  0.3278957603492171  0.3383904864995831 -0.0040342254519686
  0.3295017452230918  0.3366600773259152  0.5044373284717556
  0.0163018927430333  0.3270792965645426  0.0006240552733734
  0.6515392390459378  0.3379263186837098  0.0046147223632420
  0.1770328316361147  0.1596712400125727  0.7533707097520683
  0.0113091516571525  0.6691460932160624  0.0027995699451119
  0.5030392711655360  0.4956664519030952  0.7447658206639358
  0.6533834086278011  0.3360129564062965  0.4936245387645148
  0.0088351119276780  0.6692865656403022  0.4988095065832624
  0.3284294162407708  0.0026254712499466  0.5038195817361828
  0.3288093382561546  0.0021610868114949 -0.0033350502448928
  0.6552635511744286  0.6641981807437167  0.5040113377698536
  0.0091096915510571  0.3224889831718889  0.4986225364536453
  0.8300485504204469  0.5028599871686990  0.2496588921539248
  0.8287593322336692  0.5024385463918820  0.7501728834555905
  0.5004819217904586  0.1653659630311766  0.7516189648317150
  0.8276345647352752  0.1766470860035843  0.7591836544708996
  0.4968801007109448  0.8376817342735865  0.2557396277242944
  0.8374955152945881  0.8234555833878425  0.7522901932494662
  0.6799019493860980 -0.0002298167150431  0.4828510851713694
  0.3343039458717094  0.6623951339329464 -0.0049935257904869
 
  0.00000000E+00  0.00000000E+00  0.00000000E+00
  0.00000000E+00  0.00000000E+00  0.00000000E+00
  0.00000000E+00  0.00000000E+00  0.00000000E+00
  0.00000000E+00  0.00000000E+00  0.00000000E+00
  0.00000000E+00  0.00000000E+00  0.00000000E+00
  0.00000000E+00  0.00000000E+00  0.00000000E+00
  0.00000000E+00  0.00000000E+00  0.00000000E+00
  0.00000000E+00  0.00000000E+00  0.00000000E+00
  0.00000000E+00  0.00000000E+00  0.00000000E+00
  0.00000000E+00  0.00000000E+00  0.00000000E+00
  0.00000000E+00  0.00000000E+00  0.00000000E+00
  0.00000000E+00  0.00000000E+00  0.00000000E+00
  0.00000000E+00  0.00000000E+00  0.00000000E+00
  0.00000000E+00  0.00000000E+00  0.00000000E+00
  0.00000000E+00  0.00000000E+00  0.00000000E+00
  0.00000000E+00  0.00000000E+00  0.00000000E+00
  0.00000000E+00  0.00000000E+00  0.00000000E+00
  0.00000000E+00  0.00000000E+00  0.00000000E+00
  0.00000000E+00  0.00000000E+00  0.00000000E+00
  0.00000000E+00  0.00000000E+00  0.00000000E+00
  0.00000000E+00  0.00000000E+00  0.00000000E+00
  0.00000000E+00  0.00000000E+00  0.00000000E+00
  0.00000000E+00  0.00000000E+00  0.00000000E+00
  0.00000000E+00  0.00000000E+00  0.00000000E+00
  0.00000000E+00  0.00000000E+00  0.00000000E+00
  0.00000000E+00  0.00000000E+00  0.00000000E+00
  0.00000000E+00  0.00000000E+00  0.00000000E+00
  0.00000000E+00  0.00000000E+00  0.00000000E+00
  0.00000000E+00  0.00000000E+00  0.00000000E+00
  0.00000000E+00  0.00000000E+00  0.00000000E+00
  0.00000000E+00  0.00000000E+00  0.00000000E+00
  0.00000000E+00  0.00000000E+00  0.00000000E+00
  0.00000000E+00  0.00000000E+00  0.00000000E+00
  0.00000000E+00  0.00000000E+00  0.00000000E+00
  0.00000000E+00  0.00000000E+00  0.00000000E+00
  0.00000000E+00  0.00000000E+00  0.00000000E+00
