title                                   
    1.000000000000000     
     9.9101030320097099   -0.0089129393181809   -0.0243898078120674
    -0.0082780234423788    9.6993944985957548   -0.0036888820996948
    -0.0163143358365359   -0.0023612103036212    6.4708388355606470
   Ti   V    W    Zr
     9     9     9     9
Direct
  0.8115114117355201  0.8472473676924513  0.7516480008180425
 -0.0009931774379461 -0.0026783259823954  0.5214630998798760
  0.6670529878089465  0.3311522243100188 -0.0073725900250465
  0.0056575917243465 -0.0035626824623600 -0.0169529517727116
 -0.0332739885015889  0.3358060089902427  0.5104515593487251
  0.8287256662756785  0.1508353987261289  0.2304368440834342
  0.5078023907961543  0.8283229584231123  0.2485709063061247
  0.1948093653074251  0.8139119538186829  0.2519733618618511
  0.4951644426399475  0.5205075491429646  0.2523774439366732
  0.8390194476684945  0.1576340569534091  0.7687070104985664
  0.1409554440208204  0.1834661406593696  0.7463269958455220
  0.3607193922872901  0.3265996077122350  0.5207845947116921
  0.5348274090331433  0.1368184947608127  0.2473289157709829
  0.6632507006127156 -0.0013335069854968  0.5035837567484440
  0.6626634273824431  0.0007325806180823 -0.0095825820951876
  0.8035017814071020  0.8413212746278730  0.2502165833226780
  0.3461272180173425  0.6760165741388529  0.5266431028677450
  0.3456255488033321  0.6748120999223971 -0.0270636119644069
  0.5161985863380379  0.1589976142348067  0.7465182886203559
  0.8228200918150177  0.5052877625106627  0.7534659986925381
  0.4977387995962572  0.5080184943900869  0.7453627573270258
  0.8206330748556979  0.5040791686770245  0.2414373441104139
 -0.0212645175745142  0.3337155715939127 -0.0107366952578367
  0.6640542869598861  0.6697190661940624  0.4988745088721028
  0.6646667209492507  0.6653755433841462 -0.0011202353361365
  0.5096746641514472  0.8294326412129223  0.7484722458237895
  0.1802681992652819  0.8253327711687231  0.7488142969979400
 -0.0068755089335834  0.6773293095955647  0.0039853299693870
  0.6647234360109598  0.3294402131440383  0.4931454773689183
  0.3548875258376143  0.3182004405836504  0.0034280630024684
  0.1480730269264044  0.1843347991234274  0.2689807563207335
  0.3355994727066884  0.0000256874504059 -0.0036360035471740
  0.1758163104386249  0.4987289253712974  0.2541943335163395
  0.1727460603662191  0.4906496530215254  0.7424375061138810
  0.3379649984714425  0.0064707439323746  0.5013777242660636
 -0.0108722877619007  0.6772518193449883  0.4954578629961834
 
  0.00000000E+00  0.00000000E+00  0.00000000E+00
  0.00000000E+00  0.00000000E+00  0.00000000E+00
  0.00000000E+00  0.00000000E+00  0.00000000E+00
  0.00000000E+00  0.00000000E+00  0.00000000E+00
  0.00000000E+00  0.00000000E+00  0.00000000E+00
  0.00000000E+00  0.00000000E+00  0.00000000E+00
  0.00000000E+00  0.00000000E+00  0.00000000E+00
  0.00000000E+00  0.00000000E+00  0.00000000E+00
  0.00000000E+00  0.00000000E+00  0.00000000E+00
  0.00000000E+00  0.00000000E+00  0.00000000E+00
  0.00000000E+00  0.00000000E+00  0.00000000E+00
  0.00000000E+00  0.00000000E+00  0.00000000E+00
  0.00000000E+00  0.00000000E+00  0.00000000E+00
  0.00000000E+00  0.00000000E+00  0.00000000E+00
  0.00000000E+00  0.00000000E+00  0.00000000E+00
  0.00000000E+00  0.00000000E+00  0.00000000E+00
  0.00000000E+00  0.00000000E+00  0.00000000E+00
  0.00000000E+00  0.00000000E+00  0.00000000E+00
  0.00000000E+00  0.00000000E+00  0.00000000E+00
  0.00000000E+00  0.00000000E+00  0.00000000E+00
  0.00000000E+00  0.00000000E+00  0.00000000E+00
  0.00000000E+00  0.00000000E+00  0.00000000E+00
  0.00000000E+00  0.00000000E+00  0.00000000E+00
  0.00000000E+00  0.00000000E+00  0.00000000E+00
  0.00000000E+00  0.00000000E+00  0.00000000E+00
  0.00000000E+00  0.00000000E+00  0.00000000E+00
  0.00000000E+00  0.00000000E+00  0.00000000E+00
  0.00000000E+00  0.00000000E+00  0.00000000E+00
  0.00000000E+00  0.00000000E+00  0.00000000E+00
  0.00000000E+00  0.00000000E+00  0.00000000E+00
  0.00000000E+00  0.00000000E+00  0.00000000E+00
  0.00000000E+00  0.00000000E+00  0.00000000E+00
  0.00000000E+00  0.00000000E+00  0.00000000E+00
  0.00000000E+00  0.00000000E+00  0.00000000E+00
  0.00000000E+00  0.00000000E+00  0.00000000E+00
  0.00000000E+00  0.00000000E+00  0.00000000E+00
