title                                   
    1.000000000000000     
     9.6731240543395796   -0.0310851578157988    0.0451955091749822
    -0.0312508944060701    9.8834124670255363    0.0857024954992895
     0.0300551061130124    0.0572336976289320    6.5043431944877845
   Mo   Nb   Ti   V    Zr
     8     7     7     7     7
Direct
  0.8284729621602817  0.1493813734311981  0.2475960021195412
  0.3277714900581896  0.0079459581529481  0.4908948362392327
  0.6703614143797225  0.3153008010701173  0.0025799513252007
  0.6847827807655931  0.6895418345502471  0.0058490180654567
  0.1577326697276093  0.8478845791219014  0.2453462030896023
  0.6704767776288292  0.0005448889210850  0.4901258021949221
 -0.0034563636971563 -0.0018096223379705  0.4940868568581899
  0.4975706275946217  0.1642732150220457  0.7514343441203801
  0.3190624178683993  0.6913943019455162  0.0022373337243193
 -0.0003806728861387  0.6777761785345282  0.4895561128289422
  0.8289229084982367  0.1483203230084971  0.7596644478838134
  0.1583752712855923  0.8486509445866028  0.7428921456469809
  0.8365181765194292  0.5045233031874559  0.2394583168940167
  0.6790285928253675  0.6812899131536883  0.4889173747524734
  0.1600082928899316  0.1632109491276665  0.7433849143916857
 -0.0087806656493949  0.3091421814460085  0.4826212809911639
  0.1664433667524496  0.4927847242553831  0.7477155949106332
  0.3271019781203278  0.0094172098908252  0.0053857998310869
  0.0025525232220698  0.6887440591824159  0.0060403442678124
 -0.0014928601166811  0.3015261941020918  0.0247915679925100
  0.4946310367747945  0.1594265893912550  0.2524861023668573
  0.3270603172837820  0.3068480595659367 -0.0164126044555455
  0.8323419293796512  0.8393563018584330  0.7510856920995680
  0.5195230996306781  0.8543605499047067  0.2436765177467030
  0.8310714072184455  0.8379734075784550  0.2439765174926898
  0.1697185928111245  0.1561847587249583  0.2684550206419749
  0.3353623282436063  0.3138018067692674  0.5287600096581951
 -0.0033218597290713 -0.0067603052410696  0.0101039742309026
  0.6744246331255698  0.0010715238950137  0.0110339120212824
  0.3296885332868236  0.6840157534962756  0.4843942700815353
  0.5036523259564796  0.5021626100425430  0.2349003515217458
  0.6655401835686309  0.3252396870170683  0.5008183411373225
  0.1676699143826957  0.4846296792554722  0.2495359228516704
  0.8432190395036693  0.5008021449368210  0.7618320339115847
  0.4991300265363051  0.5044147929775166  0.7625721165087516
  0.5092168040795338  0.8466293294750937  0.7522035740567969
 
  0.00000000E+00  0.00000000E+00  0.00000000E+00
  0.00000000E+00  0.00000000E+00  0.00000000E+00
  0.00000000E+00  0.00000000E+00  0.00000000E+00
  0.00000000E+00  0.00000000E+00  0.00000000E+00
  0.00000000E+00  0.00000000E+00  0.00000000E+00
  0.00000000E+00  0.00000000E+00  0.00000000E+00
  0.00000000E+00  0.00000000E+00  0.00000000E+00
  0.00000000E+00  0.00000000E+00  0.00000000E+00
  0.00000000E+00  0.00000000E+00  0.00000000E+00
  0.00000000E+00  0.00000000E+00  0.00000000E+00
  0.00000000E+00  0.00000000E+00  0.00000000E+00
  0.00000000E+00  0.00000000E+00  0.00000000E+00
  0.00000000E+00  0.00000000E+00  0.00000000E+00
  0.00000000E+00  0.00000000E+00  0.00000000E+00
  0.00000000E+00  0.00000000E+00  0.00000000E+00
  0.00000000E+00  0.00000000E+00  0.00000000E+00
  0.00000000E+00  0.00000000E+00  0.00000000E+00
  0.00000000E+00  0.00000000E+00  0.00000000E+00
  0.00000000E+00  0.00000000E+00  0.00000000E+00
  0.00000000E+00  0.00000000E+00  0.00000000E+00
  0.00000000E+00  0.00000000E+00  0.00000000E+00
  0.00000000E+00  0.00000000E+00  0.00000000E+00
  0.00000000E+00  0.00000000E+00  0.00000000E+00
  0.00000000E+00  0.00000000E+00  0.00000000E+00
  0.00000000E+00  0.00000000E+00  0.00000000E+00
  0.00000000E+00  0.00000000E+00  0.00000000E+00
  0.00000000E+00  0.00000000E+00  0.00000000E+00
  0.00000000E+00  0.00000000E+00  0.00000000E+00
  0.00000000E+00  0.00000000E+00  0.00000000E+00
  0.00000000E+00  0.00000000E+00  0.00000000E+00
  0.00000000E+00  0.00000000E+00  0.00000000E+00
  0.00000000E+00  0.00000000E+00  0.00000000E+00
  0.00000000E+00  0.00000000E+00  0.00000000E+00
  0.00000000E+00  0.00000000E+00  0.00000000E+00
  0.00000000E+00  0.00000000E+00  0.00000000E+00
  0.00000000E+00  0.00000000E+00  0.00000000E+00
