title                                   
    1.000000000000000     
     9.8246684138045737   -0.0045157755501215    0.0089080519843561
    -0.0046778933773154    9.8903097221419820   -0.0026642560194768
     0.0072573381263294   -0.0011412644619004    6.7090533762956399
   Hf   Ti   V    W    Zr
     7     7     7     8     7
Direct
  0.8424556895241326  0.8229369460258800  0.7751775189077847
  0.8372583963002255  0.5145987112807980  0.2425515546743572
  0.3348381026596494  0.6564914651747962  0.4959849169180130
  0.6642521595878221  0.3423408966493247  0.5125139584702171
  0.6732038433707487  0.0049060061157744  0.5185214374422251
  0.4819140651415995  0.1789746521495507  0.7622793300563836
  0.8248585608742398  0.1722944785968925  0.2209272409829355
  0.4951377006403162  0.1902739919549706  0.2341372662694465
  0.8417784736329204  0.8301704670310479  0.2514325445175087
  0.0146432965013804  0.6631969908275396  0.4968634698396248
  0.3399590128063129 -0.0167357640180732  0.0078923715008636
  0.0025480764781236  0.3461235602066922 -0.0223555385831489
  0.3330339978101310  0.6608411940115846  0.0041684863933559
  0.6582657828310150  0.0036599070475074 -0.0240820934076229
  0.1738889301331269  0.5014961925367410  0.7621735271593112
  0.1435339090580971  0.8254983752113332  0.2205900766224382
  0.0207962172000812  0.6414947334998814 -0.0053230936229203
  0.4886306508821472  0.4769402538036951  0.2504349762185705
  0.6641354470165632  0.3421859307491553 -0.0189172261736765
  0.3302115422432242  0.3548971174322026  0.5048758102163867
  0.4837843507434199  0.4806481088142727  0.7515690332284802
  0.8331092145958808  0.1689046161062807  0.7798419181735006
  0.1690651562312126  0.4999825550222199  0.2356477298423577
  0.8322121775422209  0.5096453862100925  0.7504851566727425
  0.6675803443852405  0.6595596146533926  0.5171432358363605
  0.0035482125734294  0.0134248727288307 -0.0026610323189221
  0.1723942465199614  0.1716896190611926  0.7674242839789012
  0.3248080630402950  0.3475648438344044 -0.0050496470855695
  0.5037881677046133  0.8262627591306657  0.7440965048042119
  0.5312789124092774  0.8261353587358041  0.2505170518046769
  0.6423375944963826  0.6432713681243248 -0.0145205501278094
  0.1754341905769914  0.1749831832743359  0.2430270171293369
  0.0039263314575126  0.3405773699187359  0.5169921606616699
  0.1584617874377812  0.8310114672278678  0.7781921945133708
  0.3328621435779520 -0.0099940398482185  0.4959705595836923
  0.0000652520159709  0.0037468107185031  0.5014778489009450
 
  0.00000000E+00  0.00000000E+00  0.00000000E+00
  0.00000000E+00  0.00000000E+00  0.00000000E+00
  0.00000000E+00  0.00000000E+00  0.00000000E+00
  0.00000000E+00  0.00000000E+00  0.00000000E+00
  0.00000000E+00  0.00000000E+00  0.00000000E+00
  0.00000000E+00  0.00000000E+00  0.00000000E+00
  0.00000000E+00  0.00000000E+00  0.00000000E+00
  0.00000000E+00  0.00000000E+00  0.00000000E+00
  0.00000000E+00  0.00000000E+00  0.00000000E+00
  0.00000000E+00  0.00000000E+00  0.00000000E+00
  0.00000000E+00  0.00000000E+00  0.00000000E+00
  0.00000000E+00  0.00000000E+00  0.00000000E+00
  0.00000000E+00  0.00000000E+00  0.00000000E+00
  0.00000000E+00  0.00000000E+00  0.00000000E+00
  0.00000000E+00  0.00000000E+00  0.00000000E+00
  0.00000000E+00  0.00000000E+00  0.00000000E+00
  0.00000000E+00  0.00000000E+00  0.00000000E+00
  0.00000000E+00  0.00000000E+00  0.00000000E+00
  0.00000000E+00  0.00000000E+00  0.00000000E+00
  0.00000000E+00  0.00000000E+00  0.00000000E+00
  0.00000000E+00  0.00000000E+00  0.00000000E+00
  0.00000000E+00  0.00000000E+00  0.00000000E+00
  0.00000000E+00  0.00000000E+00  0.00000000E+00
  0.00000000E+00  0.00000000E+00  0.00000000E+00
  0.00000000E+00  0.00000000E+00  0.00000000E+00
  0.00000000E+00  0.00000000E+00  0.00000000E+00
  0.00000000E+00  0.00000000E+00  0.00000000E+00
  0.00000000E+00  0.00000000E+00  0.00000000E+00
  0.00000000E+00  0.00000000E+00  0.00000000E+00
  0.00000000E+00  0.00000000E+00  0.00000000E+00
  0.00000000E+00  0.00000000E+00  0.00000000E+00
  0.00000000E+00  0.00000000E+00  0.00000000E+00
  0.00000000E+00  0.00000000E+00  0.00000000E+00
  0.00000000E+00  0.00000000E+00  0.00000000E+00
  0.00000000E+00  0.00000000E+00  0.00000000E+00
  0.00000000E+00  0.00000000E+00  0.00000000E+00
