title                                   
    1.000000000000000     
    10.1257816745713125   -0.0546886404710497   -0.1120164194406452
    -0.0537263867933538    9.9748625503159793    0.0785276718560118
    -0.0745949417462378    0.0526012957457562    6.6872498331825536
   Mo   Zr
    18    18
Direct
  0.4920993461688514  0.8259736409181664  0.2477555996994145
  0.4955944355576813  0.5018636769218193  0.7510860578953605
  0.3383822276156330  0.6698721746010899  0.5022384004394692
  0.8177476258708786  0.4946410917993628  0.2499003933214597
  0.0032650522376653  0.3264912855882460 -0.0010591346316744
  0.8402332748494449  0.1777531682181379  0.7663520558671312
  0.3400484671311441  0.6685993433153378 -0.0059336313826243
  0.1669614741597528  0.1690388262670547  0.2400653563153084
  0.6530888430188967  0.6653883294980525  0.5057505653431008
  0.1827896984281880  0.4920538558644630  0.7565636675368614
  0.4913809739274836  0.8229562380756467  0.7454916713725165
  0.3312117370405565  0.3358009112378166 -0.0167025005257828
  0.1779706806391411  0.8310804792378907  0.2513623094385675
  0.6611624881662778  0.3412987074128377 -0.0066854482402191
  0.3346331278331817 -0.0077778931232403  0.0033360407494661
  0.3349478064615771  0.3329930020862116  0.5125557703178548
  0.4877823227654629  0.1803014451293839  0.7552452271336975
  0.0200366224138195  0.0050968257881131  0.4807327991118345
  0.1762997545706493  0.8266102992538786  0.7531028168524095
  0.6536253213737205  0.0036351325708089 -0.0164035774168904
  0.6572745121815463  0.6739639805723882  0.0012452404595987
  0.8368536299563947  0.1725718602506491  0.2428820965921296
  0.3387149767448258 -0.0052335863940966  0.4897178761887964
  0.8374076184121293  0.8351144431116724  0.7261156643212227
  0.1838968741506840  0.4903663504774312  0.2463333919514647
  0.1727380126514655  0.1659936528471136  0.7492660007210564
  0.6651935098187015  0.3331098367385543  0.5135568592993344
  0.6508085506255900  0.0044549347948946  0.5104075254941411
  0.8273807244391301  0.4996997311119745  0.7658965221170876
  0.8312199994683974  0.8362681561669179  0.2755255882539210
 -0.0016675433784366  0.3343702498504796  0.5039570382964500
  0.4915043114060019  0.5025735575220251  0.2516185700740602
  0.0073733950003708 -0.0001706214645089  0.0073637323466275
  0.4862872755097058  0.1798907248180123  0.2280028822235322
  0.0056742722883827  0.6593960248866069  0.0208226512860822
  0.0100786004951056  0.6539601640488061  0.4925339211772353
 
  0.00000000E+00  0.00000000E+00  0.00000000E+00
  0.00000000E+00  0.00000000E+00  0.00000000E+00
  0.00000000E+00  0.00000000E+00  0.00000000E+00
  0.00000000E+00  0.00000000E+00  0.00000000E+00
  0.00000000E+00  0.00000000E+00  0.00000000E+00
  0.00000000E+00  0.00000000E+00  0.00000000E+00
  0.00000000E+00  0.00000000E+00  0.00000000E+00
  0.00000000E+00  0.00000000E+00  0.00000000E+00
  0.00000000E+00  0.00000000E+00  0.00000000E+00
  0.00000000E+00  0.00000000E+00  0.00000000E+00
  0.00000000E+00  0.00000000E+00  0.00000000E+00
  0.00000000E+00  0.00000000E+00  0.00000000E+00
  0.00000000E+00  0.00000000E+00  0.00000000E+00
  0.00000000E+00  0.00000000E+00  0.00000000E+00
  0.00000000E+00  0.00000000E+00  0.00000000E+00
  0.00000000E+00  0.00000000E+00  0.00000000E+00
  0.00000000E+00  0.00000000E+00  0.00000000E+00
  0.00000000E+00  0.00000000E+00  0.00000000E+00
  0.00000000E+00  0.00000000E+00  0.00000000E+00
  0.00000000E+00  0.00000000E+00  0.00000000E+00
  0.00000000E+00  0.00000000E+00  0.00000000E+00
  0.00000000E+00  0.00000000E+00  0.00000000E+00
  0.00000000E+00  0.00000000E+00  0.00000000E+00
  0.00000000E+00  0.00000000E+00  0.00000000E+00
  0.00000000E+00  0.00000000E+00  0.00000000E+00
  0.00000000E+00  0.00000000E+00  0.00000000E+00
  0.00000000E+00  0.00000000E+00  0.00000000E+00
  0.00000000E+00  0.00000000E+00  0.00000000E+00
  0.00000000E+00  0.00000000E+00  0.00000000E+00
  0.00000000E+00  0.00000000E+00  0.00000000E+00
  0.00000000E+00  0.00000000E+00  0.00000000E+00
  0.00000000E+00  0.00000000E+00  0.00000000E+00
  0.00000000E+00  0.00000000E+00  0.00000000E+00
  0.00000000E+00  0.00000000E+00  0.00000000E+00
  0.00000000E+00  0.00000000E+00  0.00000000E+00
  0.00000000E+00  0.00000000E+00  0.00000000E+00
