title                                   
    1.000000000000000     
     9.7565700133274085    0.0116541246811496    0.0874980104464656
     0.0113506652670706    9.7704752082529893   -0.0627049346972708
     0.0582993182772604   -0.0421585823718718    6.4531980524602153
   Cr   Hf   Mo   Nb   W 
     4    11    15     3     3
Direct
  0.1781512129950147  0.5117955276340890  0.2497873518508482
  0.8167167559337042  0.4890786844099440  0.2569843823725159
  0.6663093562250297  0.3518850919769000  0.4975934893266449
  0.6682268186964584 -0.0149251878456587  0.4958712791199927
  0.0065635864799036  0.3465133922043386  0.4956954345066167
  0.6676792471590584  0.6544794590748598  0.4988766914982146
  0.8353233108927737  0.8312119092413469  0.7507479537304924
  0.5085622937557079  0.1680567863203441  0.7300095088816614
  0.3322353778855503  0.3416579782039170  0.4834546978876186
  0.0029261960348846  0.3431245500548472  0.0074833158228387
  0.4932732298195727  0.8303615426392968  0.2550656884706287
 -0.0007902384621712  0.6573370428593305  0.0185267447976742
  0.6605971720609016 -0.0054567432970509  0.0023928523426990
  0.8137799431398475  0.1726843476261444  0.2662605572154351
  0.0060454201600779  0.0032383346814311  0.4971381224532743
  0.1764812484099079  0.5091840631238441  0.7526677997303886
  0.4950280491207878  0.8308228596832431  0.7483582284573892
  0.6643780503852810  0.3391441083581839  0.0013184752096850
  0.8269872792729887  0.4998382161991963  0.7540516413809643
  0.3316053764545948  0.6612578893135589  0.5015074864988769
  0.4996114310779579  0.4998581328728188  0.2370780586932251
  0.0039680268565181  0.6632277074485500  0.4977865439150940
  0.6647069363990661  0.6563905976873700  0.0006966395654059
  0.3334752691271962  0.3403223919119311 -0.0024420115130521
  0.1724013721095324  0.1630147029736613  0.2391108096590019
  0.5014082434322189  0.4948011500259503  0.7517568050852499
  0.1732775356222578  0.8329090245332310  0.2508114789913458
  0.4989155803952041  0.1674539661735275  0.2409321807108478
  0.3304830983658255  0.0000284123953190  0.4941024878730278
  0.3293177420575573  0.6627381294337776  0.0010189860297892
  0.8235415760508946  0.1685700619547948  0.7514404633264957
  0.1799114884248004  0.1626572051008101  0.7534014531723882
  0.1710883141479925  0.8324370077374216  0.7529268796705831
  0.0046990628585420 -0.0007508559899436  0.0097573881789729
  0.8297013074387449  0.8354685994392583  0.2595252821590165
  0.3334133292158164 -0.0004160861605843 -0.0016951470718496
 
  0.00000000E+00  0.00000000E+00  0.00000000E+00
  0.00000000E+00  0.00000000E+00  0.00000000E+00
  0.00000000E+00  0.00000000E+00  0.00000000E+00
  0.00000000E+00  0.00000000E+00  0.00000000E+00
  0.00000000E+00  0.00000000E+00  0.00000000E+00
  0.00000000E+00  0.00000000E+00  0.00000000E+00
  0.00000000E+00  0.00000000E+00  0.00000000E+00
  0.00000000E+00  0.00000000E+00  0.00000000E+00
  0.00000000E+00  0.00000000E+00  0.00000000E+00
  0.00000000E+00  0.00000000E+00  0.00000000E+00
  0.00000000E+00  0.00000000E+00  0.00000000E+00
  0.00000000E+00  0.00000000E+00  0.00000000E+00
  0.00000000E+00  0.00000000E+00  0.00000000E+00
  0.00000000E+00  0.00000000E+00  0.00000000E+00
  0.00000000E+00  0.00000000E+00  0.00000000E+00
  0.00000000E+00  0.00000000E+00  0.00000000E+00
  0.00000000E+00  0.00000000E+00  0.00000000E+00
  0.00000000E+00  0.00000000E+00  0.00000000E+00
  0.00000000E+00  0.00000000E+00  0.00000000E+00
  0.00000000E+00  0.00000000E+00  0.00000000E+00
  0.00000000E+00  0.00000000E+00  0.00000000E+00
  0.00000000E+00  0.00000000E+00  0.00000000E+00
  0.00000000E+00  0.00000000E+00  0.00000000E+00
  0.00000000E+00  0.00000000E+00  0.00000000E+00
  0.00000000E+00  0.00000000E+00  0.00000000E+00
  0.00000000E+00  0.00000000E+00  0.00000000E+00
  0.00000000E+00  0.00000000E+00  0.00000000E+00
  0.00000000E+00  0.00000000E+00  0.00000000E+00
  0.00000000E+00  0.00000000E+00  0.00000000E+00
  0.00000000E+00  0.00000000E+00  0.00000000E+00
  0.00000000E+00  0.00000000E+00  0.00000000E+00
  0.00000000E+00  0.00000000E+00  0.00000000E+00
  0.00000000E+00  0.00000000E+00  0.00000000E+00
  0.00000000E+00  0.00000000E+00  0.00000000E+00
  0.00000000E+00  0.00000000E+00  0.00000000E+00
  0.00000000E+00  0.00000000E+00  0.00000000E+00
