title                                   
    1.000000000000000     
    10.1475748119372646    0.0186158118289885   -0.0117274874420730
     0.0186430389311080   10.1399160211813584    0.0135243787296703
    -0.0077937366945484    0.0090252057251291    6.7412619838955168
   Hf   Nb   Ta
    10     8    18
Direct
  0.3357600343842121 -0.0053510987634317  0.0008292107330816
 -0.0095304460860319  0.6561805722177790 -0.0033102923303021
  0.8343378596890698  0.8337240840570518  0.2529835489515481
  0.1749961634048992  0.5014936612540298  0.7465838169037597
 -0.0061790393079035  0.0177519237186265  0.5121152767280781
  0.1615574235135879  0.8302050593509499  0.2623646996132074
  0.5055284582246958  0.1718483162458498  0.2531483066088983
  0.5048180143797003  0.4955623283889601  0.2511713298595445
  0.5022012458746373  0.1750844783533979  0.7467092266108021
  0.1683182476370630  0.8255513216981358  0.7345136899661153
  0.8284978165719044  0.8341626517422662  0.7496179757343997
  0.5066770305086827  0.8291669775338479  0.2541614495028286
  0.3457857888492146  0.6657620108586962  0.4962653079786016
  0.0016646494668172  0.3340527151758543  0.0053115489423874
  0.1698531867967567  0.4987103866365031  0.2516398221651782
  0.6674219711004288  0.6670682623557318  0.5081299390384972
  0.6770568089286660  0.3376555350780274 -0.0025265547522338
  0.8281517448357155  0.1677206829091891  0.2439286305253692
 -0.0012274162613004  0.3316755630210763  0.4962260231190329
  0.4999305729456178  0.4987093960245303  0.7471196259725765
  0.6643572387787252  0.6700472761156822 -0.0086539640081849
  0.6648693106199840 -0.0090614848272681 -0.0088282871735039
  0.8260331537934918  0.4979296691936659  0.2522570126067306
  0.8293807415313587  0.4941215711115264  0.7487112454099026
  0.3480319495757281  0.6729521722300241  0.0003222064760742
  0.8273142344748199  0.1725653808541369  0.7604141431378789
  0.3347110517190700  0.0037728463872384  0.4983912389469549
  0.5015102084830155  0.8307522409647653  0.7431830957555550
  0.3214341561860638  0.3328751961411860  0.0106663447523224
  0.6695720807132457 -0.0030145658445333  0.5114436366415729
  0.3185927184542596  0.3295634530785642  0.4867217129011311
 -0.0040047523520682  0.0114850787633266 -0.0082201960097031
  0.1645583146770507  0.1685215744891456  0.2464384903422600
  0.6824541138290673  0.3349520491469311  0.5035327498714361
  0.1670038851622792  0.1767050915142328  0.7546882119259423
 -0.0114385211025254  0.6490976228243047  0.5019497765522595
 
  0.00000000E+00  0.00000000E+00  0.00000000E+00
  0.00000000E+00  0.00000000E+00  0.00000000E+00
  0.00000000E+00  0.00000000E+00  0.00000000E+00
  0.00000000E+00  0.00000000E+00  0.00000000E+00
  0.00000000E+00  0.00000000E+00  0.00000000E+00
  0.00000000E+00  0.00000000E+00  0.00000000E+00
  0.00000000E+00  0.00000000E+00  0.00000000E+00
  0.00000000E+00  0.00000000E+00  0.00000000E+00
  0.00000000E+00  0.00000000E+00  0.00000000E+00
  0.00000000E+00  0.00000000E+00  0.00000000E+00
  0.00000000E+00  0.00000000E+00  0.00000000E+00
  0.00000000E+00  0.00000000E+00  0.00000000E+00
  0.00000000E+00  0.00000000E+00  0.00000000E+00
  0.00000000E+00  0.00000000E+00  0.00000000E+00
  0.00000000E+00  0.00000000E+00  0.00000000E+00
  0.00000000E+00  0.00000000E+00  0.00000000E+00
  0.00000000E+00  0.00000000E+00  0.00000000E+00
  0.00000000E+00  0.00000000E+00  0.00000000E+00
  0.00000000E+00  0.00000000E+00  0.00000000E+00
  0.00000000E+00  0.00000000E+00  0.00000000E+00
  0.00000000E+00  0.00000000E+00  0.00000000E+00
  0.00000000E+00  0.00000000E+00  0.00000000E+00
  0.00000000E+00  0.00000000E+00  0.00000000E+00
  0.00000000E+00  0.00000000E+00  0.00000000E+00
  0.00000000E+00  0.00000000E+00  0.00000000E+00
  0.00000000E+00  0.00000000E+00  0.00000000E+00
  0.00000000E+00  0.00000000E+00  0.00000000E+00
  0.00000000E+00  0.00000000E+00  0.00000000E+00
  0.00000000E+00  0.00000000E+00  0.00000000E+00
  0.00000000E+00  0.00000000E+00  0.00000000E+00
  0.00000000E+00  0.00000000E+00  0.00000000E+00
  0.00000000E+00  0.00000000E+00  0.00000000E+00
  0.00000000E+00  0.00000000E+00  0.00000000E+00
  0.00000000E+00  0.00000000E+00  0.00000000E+00
  0.00000000E+00  0.00000000E+00  0.00000000E+00
  0.00000000E+00  0.00000000E+00  0.00000000E+00
