title                                   
    1.000000000000000     
     9.7375045107628182    0.0000636670956976    0.0758189941166738
     0.0000332756447235    9.7288542134966765    0.0434234556483225
     0.0509062246225375    0.0291876956438052    6.5887647723838549
   Mo   Nb   Ta   Ti   Zr
     6    12     2    15     1
Direct
 -0.0011825112861226  0.6618707678659588  0.0018573635452854
  0.3320658316446552  0.6694163127282402 -0.0059132197659003
  0.1651814981963899  0.5021506157028330  0.7514552821684625
  0.8305776795956950  0.1675716321957161  0.2464114881756994
  0.8415845975514328  0.5027635300257366  0.2392509988433812
  0.6716295234571104  0.3299492218778012  0.0069162329518670
  0.8362553704800284  0.8298923271538596  0.2574284061542873
  0.3261435678868236  0.3301523523673676 -0.0175734474859435
  0.8370636783413440  0.8289673418297451  0.7562506327991207
  0.3337578007779187 -0.0012852406946991  0.4876881116995959
  0.0020137743499553  0.3303427203571753  0.0053759025430962
  0.6696468720852127  0.6738198537728405  0.0090909887460462
  0.3296891515188791  0.3390791838174819  0.5011715213644408
  0.3292253059568708  0.6610131961544078  0.5046069960777300
  0.6745441346331743  0.0015626561433361  0.4960233443019017
  0.6701200858409625  0.6637193340118080  0.4989786481288027
  0.1710098776175840  0.1694048795853672  0.2542676618088652
  0.4945962240071081  0.8305730586380780  0.2555362002213614
  0.0035512159400390  0.6562755216449521  0.5064016913726241
 -0.0068295607826193  0.0045271532217006  0.0153691149404480
 -0.0076969601960394  0.0020793554354357  0.4913913599265169
  0.8343402434089913  0.4948623371344147  0.7694944466847593
  0.1714316922970060  0.5094952165385004  0.2356143450161359
  0.4992354963385005  0.5087592446199978  0.7708219307457376
  0.4948021422302948  0.8285984253795972  0.7525293844616943
  0.1645782079532202  0.1595808406323350  0.7391867721922388
  0.3339414750955343  0.0035601954720564  0.0103535269894103
 -0.0016112075872379  0.3369195940273416  0.4920512963362105
  0.5041250641372033  0.1661841981228686  0.7575990969898826
  0.1665533367506176  0.8197188558383831  0.2342675893757149
  0.8291174187877609  0.1730947122959200  0.7606680661621533
  0.6694251175318493 -0.0032921161941141  0.0089498755119252
  0.4935011342082667  0.4999260834452066  0.2210685396421808
  0.4994179719436181  0.1756944401460849  0.2304072139554250
  0.1684937555842615  0.8322467693320714  0.7648611936633711
  0.6697009937037107  0.3408054293741937  0.4901414437554706
 
  0.00000000E+00  0.00000000E+00  0.00000000E+00
  0.00000000E+00  0.00000000E+00  0.00000000E+00
  0.00000000E+00  0.00000000E+00  0.00000000E+00
  0.00000000E+00  0.00000000E+00  0.00000000E+00
  0.00000000E+00  0.00000000E+00  0.00000000E+00
  0.00000000E+00  0.00000000E+00  0.00000000E+00
  0.00000000E+00  0.00000000E+00  0.00000000E+00
  0.00000000E+00  0.00000000E+00  0.00000000E+00
  0.00000000E+00  0.00000000E+00  0.00000000E+00
  0.00000000E+00  0.00000000E+00  0.00000000E+00
  0.00000000E+00  0.00000000E+00  0.00000000E+00
  0.00000000E+00  0.00000000E+00  0.00000000E+00
  0.00000000E+00  0.00000000E+00  0.00000000E+00
  0.00000000E+00  0.00000000E+00  0.00000000E+00
  0.00000000E+00  0.00000000E+00  0.00000000E+00
  0.00000000E+00  0.00000000E+00  0.00000000E+00
  0.00000000E+00  0.00000000E+00  0.00000000E+00
  0.00000000E+00  0.00000000E+00  0.00000000E+00
  0.00000000E+00  0.00000000E+00  0.00000000E+00
  0.00000000E+00  0.00000000E+00  0.00000000E+00
  0.00000000E+00  0.00000000E+00  0.00000000E+00
  0.00000000E+00  0.00000000E+00  0.00000000E+00
  0.00000000E+00  0.00000000E+00  0.00000000E+00
  0.00000000E+00  0.00000000E+00  0.00000000E+00
  0.00000000E+00  0.00000000E+00  0.00000000E+00
  0.00000000E+00  0.00000000E+00  0.00000000E+00
  0.00000000E+00  0.00000000E+00  0.00000000E+00
  0.00000000E+00  0.00000000E+00  0.00000000E+00
  0.00000000E+00  0.00000000E+00  0.00000000E+00
  0.00000000E+00  0.00000000E+00  0.00000000E+00
  0.00000000E+00  0.00000000E+00  0.00000000E+00
  0.00000000E+00  0.00000000E+00  0.00000000E+00
  0.00000000E+00  0.00000000E+00  0.00000000E+00
  0.00000000E+00  0.00000000E+00  0.00000000E+00
  0.00000000E+00  0.00000000E+00  0.00000000E+00
  0.00000000E+00  0.00000000E+00  0.00000000E+00
