title                                   
    1.000000000000000     
    10.1766461463219215    0.0144667523741617   -0.0084097619542536
     0.0156250111344071   10.0714054490866527    0.1447059241907981
    -0.0043739959501050    0.0961360751587583    6.6696882943724196
   Hf   Mo   Ti   V    Zr
    15     2     1    12     6
Direct
  0.1232374964681294  0.1858472416768426  0.2908999155025371
  0.6777249646742226  0.6739357703621467 -0.0122319358497366
 -0.0008621545980874  0.3255742727984497 -0.0407539545637355
 -0.0174160435091634  0.0060736981307179  0.0010247841021702
  0.6825730391159481  0.3223790420403949 -0.0007633616046465
  0.3260639437920288  0.3187608381860990  0.5143374050987016
  0.4917522085923204  0.5089929618817584  0.2673907708086197
  0.5042516003915070  0.4940268772957497  0.7148510089083124
  0.6847166416601828  0.6748361055452780  0.5100546885824105
  0.3509658709632619  0.6681338788970361 -0.0476476821904095
  0.5235442969954444  0.1444411520041202  0.7545693954644401
  0.1677973001834827  0.5064659864932682  0.2588141408909144
  0.3347464166486483  0.0113398368163064  0.4899195793896382
  0.1562995724584201  0.8386052261400448  0.7564197054140374
  0.3299386948584693  0.3246569009352233 -0.0004423524144154
  0.6733062951255322 -0.0090808983989679  0.4972162432801821
  0.8261504785900259  0.8394675003071995  0.2415180986662702
 -0.0263778982606829 -0.0035404744018333  0.5038978019587673
  0.8156900655963158  0.1469480960522904  0.2538748699991557
  0.6811505028815107 -0.0106386334163630  0.0044438609694506
  0.5384463171719814  0.1400610617357354  0.2441783091130991
  0.8244451873811319  0.8519863193687415  0.7613765009692670
  0.5215281979119594  0.8540161180063375  0.7442348875275855
  0.8173754921097537  0.1420743024191957  0.7370067492727103
 -0.0223272009059942  0.6801068983488294 -0.0138697701789070
  0.1676035834252221  0.5100896888778894  0.7302146355210871
  0.8507844203575355  0.5102724679817171  0.7686633752820407
  0.1481646060156828  0.1636277237939629  0.7134426777243833
 -0.0004164891517232  0.3496006427239777  0.5524231651265280
  0.3236763190144216  0.6658877760928295  0.5376812141211886
 -0.0161441049539685  0.6781369401394365  0.5271672882750291
  0.4959195417369444  0.8305300682042084  0.2585150751632770
  0.6901266825846076  0.3223725349428539  0.4877957571396095
  0.8680695808438962  0.4981742937699604  0.2407755254730858
  0.1683392656124201  0.8155310262175938  0.2454707956230781
  0.3191553082186120  0.0203067580309696  0.0075308314342735
 
  0.00000000E+00  0.00000000E+00  0.00000000E+00
  0.00000000E+00  0.00000000E+00  0.00000000E+00
  0.00000000E+00  0.00000000E+00  0.00000000E+00
  0.00000000E+00  0.00000000E+00  0.00000000E+00
  0.00000000E+00  0.00000000E+00  0.00000000E+00
  0.00000000E+00  0.00000000E+00  0.00000000E+00
  0.00000000E+00  0.00000000E+00  0.00000000E+00
  0.00000000E+00  0.00000000E+00  0.00000000E+00
  0.00000000E+00  0.00000000E+00  0.00000000E+00
  0.00000000E+00  0.00000000E+00  0.00000000E+00
  0.00000000E+00  0.00000000E+00  0.00000000E+00
  0.00000000E+00  0.00000000E+00  0.00000000E+00
  0.00000000E+00  0.00000000E+00  0.00000000E+00
  0.00000000E+00  0.00000000E+00  0.00000000E+00
  0.00000000E+00  0.00000000E+00  0.00000000E+00
  0.00000000E+00  0.00000000E+00  0.00000000E+00
  0.00000000E+00  0.00000000E+00  0.00000000E+00
  0.00000000E+00  0.00000000E+00  0.00000000E+00
  0.00000000E+00  0.00000000E+00  0.00000000E+00
  0.00000000E+00  0.00000000E+00  0.00000000E+00
  0.00000000E+00  0.00000000E+00  0.00000000E+00
  0.00000000E+00  0.00000000E+00  0.00000000E+00
  0.00000000E+00  0.00000000E+00  0.00000000E+00
  0.00000000E+00  0.00000000E+00  0.00000000E+00
  0.00000000E+00  0.00000000E+00  0.00000000E+00
  0.00000000E+00  0.00000000E+00  0.00000000E+00
  0.00000000E+00  0.00000000E+00  0.00000000E+00
  0.00000000E+00  0.00000000E+00  0.00000000E+00
  0.00000000E+00  0.00000000E+00  0.00000000E+00
  0.00000000E+00  0.00000000E+00  0.00000000E+00
  0.00000000E+00  0.00000000E+00  0.00000000E+00
  0.00000000E+00  0.00000000E+00  0.00000000E+00
  0.00000000E+00  0.00000000E+00  0.00000000E+00
  0.00000000E+00  0.00000000E+00  0.00000000E+00
  0.00000000E+00  0.00000000E+00  0.00000000E+00
  0.00000000E+00  0.00000000E+00  0.00000000E+00
