title                                   
    1.000000000000000     
     9.7465538304514912    0.0810907336465468   -0.0101387370205829
     0.0811331264232408    9.7485728741846973    0.0239384900351769
    -0.0067702503000235    0.0159203955031739    6.4804796318882616
   Mo   Nb   Ta   V    Zr
    12    15     6     2     1
Direct
  0.5066614830636158  0.5012051445090714  0.2474699726409145
 -0.0014912020020971  0.3327790388619692  0.4993235896133873
 -0.0015418198920519  0.6658538536713012  0.5011714788960814
  0.1607682150132052  0.5026489723185673  0.2495169273626343
  0.5033428711634190  0.1665801132924439  0.7533523525963998
  0.6684038191676658  0.3325830398043896  0.0002316948092516
  0.1674436400098230  0.8350418241292153  0.7488896743715583
  0.6689171755311546  0.3339000948806116  0.5008326879737672
  0.8337485455139434  0.8293420368665942  0.7484283929755176
  0.8339736226350488  0.1697248860825407  0.2511045708915609
  0.1677035260035775  0.8349264409194183  0.2503985601154199
  0.3320517959969364 -0.0000344789700514  0.5009204383000868
  0.5084020347815450  0.5010193928617810  0.7541395992445370
  0.6675118132182940  0.6647396899818755 -0.0006211993040064
  0.4934720400840203  0.8390994672961271  0.2494430295155782
 -0.0002706356417157  0.6653798593598325 -0.0014755842915457
  0.5018759729569741  0.1664067266745618  0.2463529293209738
 -0.0016721827504356  0.3342425313808617  0.0020932014471378
  0.0009085527256394 -0.0068202537006226 -0.0008142851510018
  0.1568899908887581  0.5024734361165580  0.7476014908651826
  0.8351292910872561  0.8274067914839141  0.2515292285600997
  0.8337245639457032  0.4945441031665593  0.2559533856804000
  0.3279774283743964  0.6686075640361899  0.4965527811546093
  0.3372341888748859  0.3359498221352993  0.0018431069622850
  0.4931476306526061  0.8384347933014628  0.7514014920005344
  0.8345064829901765  0.1735583891570278  0.7488994490736666
  0.3271559665911989  0.6702109085010556  0.0020124679735043
  0.6674842297033931  0.6657153671217976  0.5036706576430704
  0.6675129220564998  0.0027558627984114 -0.0037907933177535
  0.1679448325527955  0.1629204864859246  0.7505485072167684
  0.6703860938896393  0.0022333998340698  0.5032725738213343
  0.1687377353066969  0.1615174671786496  0.2481020428680379
 -0.0011103343174037 -0.0062284735594864  0.5005267215936555
  0.8322798870952723  0.4928569033393744  0.7465054479097829
  0.3329429476341558 -0.0007232282401371 -0.0022761834375670
  0.3378468750954062  0.3391480269228395  0.4968895921041360
 
  0.00000000E+00  0.00000000E+00  0.00000000E+00
  0.00000000E+00  0.00000000E+00  0.00000000E+00
  0.00000000E+00  0.00000000E+00  0.00000000E+00
  0.00000000E+00  0.00000000E+00  0.00000000E+00
  0.00000000E+00  0.00000000E+00  0.00000000E+00
  0.00000000E+00  0.00000000E+00  0.00000000E+00
  0.00000000E+00  0.00000000E+00  0.00000000E+00
  0.00000000E+00  0.00000000E+00  0.00000000E+00
  0.00000000E+00  0.00000000E+00  0.00000000E+00
  0.00000000E+00  0.00000000E+00  0.00000000E+00
  0.00000000E+00  0.00000000E+00  0.00000000E+00
  0.00000000E+00  0.00000000E+00  0.00000000E+00
  0.00000000E+00  0.00000000E+00  0.00000000E+00
  0.00000000E+00  0.00000000E+00  0.00000000E+00
  0.00000000E+00  0.00000000E+00  0.00000000E+00
  0.00000000E+00  0.00000000E+00  0.00000000E+00
  0.00000000E+00  0.00000000E+00  0.00000000E+00
  0.00000000E+00  0.00000000E+00  0.00000000E+00
  0.00000000E+00  0.00000000E+00  0.00000000E+00
  0.00000000E+00  0.00000000E+00  0.00000000E+00
  0.00000000E+00  0.00000000E+00  0.00000000E+00
  0.00000000E+00  0.00000000E+00  0.00000000E+00
  0.00000000E+00  0.00000000E+00  0.00000000E+00
  0.00000000E+00  0.00000000E+00  0.00000000E+00
  0.00000000E+00  0.00000000E+00  0.00000000E+00
  0.00000000E+00  0.00000000E+00  0.00000000E+00
  0.00000000E+00  0.00000000E+00  0.00000000E+00
  0.00000000E+00  0.00000000E+00  0.00000000E+00
  0.00000000E+00  0.00000000E+00  0.00000000E+00
  0.00000000E+00  0.00000000E+00  0.00000000E+00
  0.00000000E+00  0.00000000E+00  0.00000000E+00
  0.00000000E+00  0.00000000E+00  0.00000000E+00
  0.00000000E+00  0.00000000E+00  0.00000000E+00
  0.00000000E+00  0.00000000E+00  0.00000000E+00
  0.00000000E+00  0.00000000E+00  0.00000000E+00
  0.00000000E+00  0.00000000E+00  0.00000000E+00
