title                                   
    1.000000000000000     
     9.1589148858552676    0.0065304789141803    0.0245284210759084
     0.0065362882531460    9.2813567578023495   -0.0107746618773894
     0.0161906126191461   -0.0072061692975583    6.1342982881929693
   Cr   Hf   Ta   V 
    19     3    10     4
Direct
  0.1674926323260404  0.1650099796704612  0.2657523537199835
 -0.0049726309079974  0.0058585963371040  0.4935039139098954
  0.3374101140657590 -0.0039529680519240 -0.0029559661123901
  0.6634727753538637  0.0026058487080626  0.4944706586376502
  0.1721654795900122  0.8446403129975409  0.7590828668378998
  0.3389234592484861  0.3345138802911045  0.5144245073176112
  0.8259858503241204  0.1595435436109908  0.7247264484205556
  0.1801317303599407  0.4891383973180773  0.7578167069568469
  0.3351119422592152  0.3351475860185732 -0.0024315031465051
  0.4988122453396905  0.1612740981102062  0.7446599055322359
  0.5018031631793417  0.8470667325191144  0.2498970429896976
  0.6583360606075459 -0.0023367414469129 -0.0067363674417468
  0.0095506518899916  0.6771528159276933  0.4970858940612173
  0.4980618400600039  0.4826313790828131  0.7542310225627135
  0.5016766700508730  0.8561033196689307  0.7614671838830598
  0.3400793478689187 -0.0007405510977018  0.5124586583564399
  0.0074176144579945  0.3181325517812624  0.4914380024702126
  0.6594819628298171  0.3207667529459148  0.4965932376597143
  0.8272964106051354  0.8415051652712701  0.2491906279047930
  0.0003837044919168  0.3215649343080668 -0.0033538866607404
  0.3472794499145588  0.6701616259934362  0.5333373101319523
  0.8352797671370881  0.5006295371480629  0.7176747902366785
  0.1720272659684690  0.4934063866035471  0.2681683854265395
  0.1811939043851443  0.1624522298338299  0.7391270214348574
  0.6597883437797570  0.3226584859666682 -0.0148670800172837
  0.8289096464678121  0.5015015355194583  0.2578320079451329
  0.4900627870194857  0.1611252638413288  0.2546567286578436
  0.8296308243923192  0.8414403668217945  0.7257783174276112
  0.1716312227551546  0.8435430424744914  0.2657601074848900
  0.0109524372024038  0.6736003029487647 -0.0071545999344548
 -0.0070337446734562  0.0033719939306529  0.0030398820521340
  0.6496551874768269  0.6740224548545669 -0.0053931469415649
  0.4973064206466814  0.4869685453424709  0.2571049900838557
  0.6565930610570054  0.6836638087491269  0.4809068365005184
  0.3383120194695318  0.6665790382549578  0.0079587941268907
  0.8197903830005477  0.1592497477461962  0.2647483475252552
 
  0.00000000E+00  0.00000000E+00  0.00000000E+00
  0.00000000E+00  0.00000000E+00  0.00000000E+00
  0.00000000E+00  0.00000000E+00  0.00000000E+00
  0.00000000E+00  0.00000000E+00  0.00000000E+00
  0.00000000E+00  0.00000000E+00  0.00000000E+00
  0.00000000E+00  0.00000000E+00  0.00000000E+00
  0.00000000E+00  0.00000000E+00  0.00000000E+00
  0.00000000E+00  0.00000000E+00  0.00000000E+00
  0.00000000E+00  0.00000000E+00  0.00000000E+00
  0.00000000E+00  0.00000000E+00  0.00000000E+00
  0.00000000E+00  0.00000000E+00  0.00000000E+00
  0.00000000E+00  0.00000000E+00  0.00000000E+00
  0.00000000E+00  0.00000000E+00  0.00000000E+00
  0.00000000E+00  0.00000000E+00  0.00000000E+00
  0.00000000E+00  0.00000000E+00  0.00000000E+00
  0.00000000E+00  0.00000000E+00  0.00000000E+00
  0.00000000E+00  0.00000000E+00  0.00000000E+00
  0.00000000E+00  0.00000000E+00  0.00000000E+00
  0.00000000E+00  0.00000000E+00  0.00000000E+00
  0.00000000E+00  0.00000000E+00  0.00000000E+00
  0.00000000E+00  0.00000000E+00  0.00000000E+00
  0.00000000E+00  0.00000000E+00  0.00000000E+00
  0.00000000E+00  0.00000000E+00  0.00000000E+00
  0.00000000E+00  0.00000000E+00  0.00000000E+00
  0.00000000E+00  0.00000000E+00  0.00000000E+00
  0.00000000E+00  0.00000000E+00  0.00000000E+00
  0.00000000E+00  0.00000000E+00  0.00000000E+00
  0.00000000E+00  0.00000000E+00  0.00000000E+00
  0.00000000E+00  0.00000000E+00  0.00000000E+00
  0.00000000E+00  0.00000000E+00  0.00000000E+00
  0.00000000E+00  0.00000000E+00  0.00000000E+00
  0.00000000E+00  0.00000000E+00  0.00000000E+00
  0.00000000E+00  0.00000000E+00  0.00000000E+00
  0.00000000E+00  0.00000000E+00  0.00000000E+00
  0.00000000E+00  0.00000000E+00  0.00000000E+00
  0.00000000E+00  0.00000000E+00  0.00000000E+00
