title                                   
    1.000000000000000     
     9.5846684882384618   -0.1104983519902141    0.0424404272600493
    -0.1109254598958692    9.6406365696162091   -0.0284643480055880
     0.0283492755592183   -0.0188338103939670    6.4101456137425119
   Cr   Ta   Ti
     8    18    10
Direct
  0.1618387904525164  0.8326187026935257  0.7503102908560909
  0.5008160083257437  0.5031784567892180  0.7500171494842617
  0.1623645052656393  0.8307856148996502  0.2510130949633165
  0.8292649449202910  0.8349475318716444  0.7498213102905151
  0.1706199400492656  0.4983957047837532  0.7494168712103986
  0.8296850743985236  0.8369553535843545  0.2566987028276233
  0.4961833569179668  0.1620980725258154  0.2526383106836165
  0.6701437814669889 -0.0001642862844405  0.4942290393472286
  0.8392074487465445  0.4999332059391262  0.2499400525378228
 -0.0033904711694429 -0.0180444524275416  0.0016835225133900
  0.8286990549592342  0.1609091443964255  0.7429890844025746
  0.6746600271329286  0.6712230270658983  0.5085086890509519
  0.3219101947558669 -0.0076783240174734  0.4860019662440955
  0.3411877592969662  0.3383195004017885 -0.0119123512202040
  0.6737867216135118  0.6745103788244098 -0.0043563133466979
  0.4953560706642439  0.5133125182683352  0.2492992782718153
  0.6682203181204212 -0.0003859046410866  0.0100792054777714
  0.5022308133968908  0.1509932275220643  0.7392248765941415
  0.8316608410585520  0.1659716243283491  0.2611089669827747
  0.3410060828828573  0.3369284346678017  0.5048002408705436
  0.8335144646964490  0.4990412442689738  0.7538648849323152
  0.0076072014868633  0.3399878070699460  0.5134524522204027
  0.5020568600328860  0.8328382158009573  0.2617409888321077
 -0.0040161716118355 -0.0181846601617996  0.4975375084783061
  0.0097612776450408  0.6754462927967536  0.5060343596713114
  0.0104983326753668  0.6739487090209605 -0.0024397956743225
  0.3216099848549706 -0.0131643760825242  0.0062801743236820
  0.5081143617278089  0.8475719463942107  0.7353089379115034
  0.1640793048403204  0.1696246069356310  0.2421944435932433
  0.1649266373870455  0.1607334490758080  0.7514895367671187
  0.1791637210866231  0.5022239541642864  0.2503359869139691
  0.3227348981232868  0.6655054922911593  0.5296211012264864
  0.3254196990137004  0.6707108566573321 -0.0210888208377927
  0.0142326130171537  0.3454254246288556 -0.0182854047223150
  0.6531355197021576  0.3344156259717047  0.4967569729390374
  0.6517100320666531  0.3290678799761276  0.0056846853829160
 
  0.00000000E+00  0.00000000E+00  0.00000000E+00
  0.00000000E+00  0.00000000E+00  0.00000000E+00
  0.00000000E+00  0.00000000E+00  0.00000000E+00
  0.00000000E+00  0.00000000E+00  0.00000000E+00
  0.00000000E+00  0.00000000E+00  0.00000000E+00
  0.00000000E+00  0.00000000E+00  0.00000000E+00
  0.00000000E+00  0.00000000E+00  0.00000000E+00
  0.00000000E+00  0.00000000E+00  0.00000000E+00
  0.00000000E+00  0.00000000E+00  0.00000000E+00
  0.00000000E+00  0.00000000E+00  0.00000000E+00
  0.00000000E+00  0.00000000E+00  0.00000000E+00
  0.00000000E+00  0.00000000E+00  0.00000000E+00
  0.00000000E+00  0.00000000E+00  0.00000000E+00
  0.00000000E+00  0.00000000E+00  0.00000000E+00
  0.00000000E+00  0.00000000E+00  0.00000000E+00
  0.00000000E+00  0.00000000E+00  0.00000000E+00
  0.00000000E+00  0.00000000E+00  0.00000000E+00
  0.00000000E+00  0.00000000E+00  0.00000000E+00
  0.00000000E+00  0.00000000E+00  0.00000000E+00
  0.00000000E+00  0.00000000E+00  0.00000000E+00
  0.00000000E+00  0.00000000E+00  0.00000000E+00
  0.00000000E+00  0.00000000E+00  0.00000000E+00
  0.00000000E+00  0.00000000E+00  0.00000000E+00
  0.00000000E+00  0.00000000E+00  0.00000000E+00
  0.00000000E+00  0.00000000E+00  0.00000000E+00
  0.00000000E+00  0.00000000E+00  0.00000000E+00
  0.00000000E+00  0.00000000E+00  0.00000000E+00
  0.00000000E+00  0.00000000E+00  0.00000000E+00
  0.00000000E+00  0.00000000E+00  0.00000000E+00
  0.00000000E+00  0.00000000E+00  0.00000000E+00
  0.00000000E+00  0.00000000E+00  0.00000000E+00
  0.00000000E+00  0.00000000E+00  0.00000000E+00
  0.00000000E+00  0.00000000E+00  0.00000000E+00
  0.00000000E+00  0.00000000E+00  0.00000000E+00
  0.00000000E+00  0.00000000E+00  0.00000000E+00
  0.00000000E+00  0.00000000E+00  0.00000000E+00
