title                                   
    1.000000000000000     
     9.6575959841831924    0.0198984149275185   -0.0197927273421444
     0.0198726827570184    9.6573039239416403   -0.0157708295138741
    -0.0131849870348051   -0.0105282361082940    6.4508008819666243
   Nb   Ta   V 
    12    12    12
Direct
  0.8370399844343065  0.8277464377645963  0.2486624211670717
  0.0004179032550266  0.6639124516061571  0.4935293921990813
  0.4973993020225164  0.1701423638960124  0.7506407690950641
  0.0091703399811847  0.0001639891015640  0.4951341630891706
  0.6614154632827189  0.3355032041681643  0.0013521507417306
  0.8352001448142196  0.8290722356257826  0.7517879337789685
  0.6665196895074978  0.0033566839686524  0.0033773832023037
  0.6677225390101533  0.6603209763596758 -0.0018130787935660
  0.1714691418420659  0.8308482708721289  0.7540973085503909
  0.1601709944379104  0.4985422379834024  0.2380200754560555
  0.4990512902116024  0.4958150717176835  0.2411046819764880
  0.3276630104772534  0.0073964081318565  0.0108436223716549
  0.3328280855229291  0.6629320265319996  0.4972300238860746
  0.4909218886543908  0.8359409961997111  0.2478412449861784
  0.0059291027259080 -0.0005694965803120  0.0089006989897874
  0.8399839642917254  0.4913479687966960  0.7497564430861533
  0.6622810050896781  0.0042460289638385  0.4990403426781352
  0.1652422257849422  0.1751368272885836  0.7517601078910749
  0.1648127712923778  0.4960232787953775  0.7588687740179376
  0.6652585502335223  0.6570413066475258  0.4986349374158053
  0.4938844365730446  0.8324184758777792  0.7525129460224742
  0.8359311002362622  0.1791558768236920  0.2572749296002408
  0.3366310403853261  0.3302474492888551  0.4912527661444256
  0.8383377807811455  0.1769115855666697  0.7465286281912890
  0.0014043207769672  0.3349137277170823  0.4907898184003126
  0.8387105971273279  0.4907339487799052  0.2496661121968957
  0.3335691794914456  0.3327456316730827  0.0047082327719121
  0.1670418346622225  0.1701705238610132  0.2521677456852969
  0.6613492228015664  0.3360948051339913  0.4984973582219974
  0.3328511241598396  0.0078612987633100  0.4933409172769841
  0.3289122476671504  0.6644791693049793 -0.0023407621400895
  0.1718203945052074  0.8322487742887004  0.2472810011186056
  0.0026933786750908  0.3349443820498875  0.0113127238408309
  0.4976372570078547  0.4991794193584514  0.7507228020894101
  0.4959047409022962  0.1663105735343529  0.2532203927132820
  0.0028239473753234  0.6666650901391503  0.0042949920805725
 
  0.00000000E+00  0.00000000E+00  0.00000000E+00
  0.00000000E+00  0.00000000E+00  0.00000000E+00
  0.00000000E+00  0.00000000E+00  0.00000000E+00
  0.00000000E+00  0.00000000E+00  0.00000000E+00
  0.00000000E+00  0.00000000E+00  0.00000000E+00
  0.00000000E+00  0.00000000E+00  0.00000000E+00
  0.00000000E+00  0.00000000E+00  0.00000000E+00
  0.00000000E+00  0.00000000E+00  0.00000000E+00
  0.00000000E+00  0.00000000E+00  0.00000000E+00
  0.00000000E+00  0.00000000E+00  0.00000000E+00
  0.00000000E+00  0.00000000E+00  0.00000000E+00
  0.00000000E+00  0.00000000E+00  0.00000000E+00
  0.00000000E+00  0.00000000E+00  0.00000000E+00
  0.00000000E+00  0.00000000E+00  0.00000000E+00
  0.00000000E+00  0.00000000E+00  0.00000000E+00
  0.00000000E+00  0.00000000E+00  0.00000000E+00
  0.00000000E+00  0.00000000E+00  0.00000000E+00
  0.00000000E+00  0.00000000E+00  0.00000000E+00
  0.00000000E+00  0.00000000E+00  0.00000000E+00
  0.00000000E+00  0.00000000E+00  0.00000000E+00
  0.00000000E+00  0.00000000E+00  0.00000000E+00
  0.00000000E+00  0.00000000E+00  0.00000000E+00
  0.00000000E+00  0.00000000E+00  0.00000000E+00
  0.00000000E+00  0.00000000E+00  0.00000000E+00
  0.00000000E+00  0.00000000E+00  0.00000000E+00
  0.00000000E+00  0.00000000E+00  0.00000000E+00
  0.00000000E+00  0.00000000E+00  0.00000000E+00
  0.00000000E+00  0.00000000E+00  0.00000000E+00
  0.00000000E+00  0.00000000E+00  0.00000000E+00
  0.00000000E+00  0.00000000E+00  0.00000000E+00
  0.00000000E+00  0.00000000E+00  0.00000000E+00
  0.00000000E+00  0.00000000E+00  0.00000000E+00
  0.00000000E+00  0.00000000E+00  0.00000000E+00
  0.00000000E+00  0.00000000E+00  0.00000000E+00
  0.00000000E+00  0.00000000E+00  0.00000000E+00
  0.00000000E+00  0.00000000E+00  0.00000000E+00
