title                                   
    1.000000000000000     
    10.0199618440460494    0.0260427390341516    0.0304688012411172
     0.0259222330182691    9.9928648483341895   -0.0983277452599536
     0.0203006239786765   -0.0657053327350429    6.6167971363493239
   Hf   Ta   V    W    Zr
     7     7     7     8     7
Direct
  0.4938685571334101  0.1795851984137394  0.2469657575756652
  0.8301858685402762  0.1504314616742991  0.7272840567458956
  0.8410407065737499  0.8408111418920079  0.2650903279508444
  0.8223163081855662  0.5132437989294139  0.2377557093939998
  0.1783722100901537  0.1662759971832136  0.7237712024571337
  0.0064869921074041  0.0079261740609739  0.0158935626654703
  0.0087336985792670  0.6676405128498232  0.5243892426665716
  0.6550050977449169  0.6734007761644438 -0.0125977200603233
  0.1851520014331469  0.5007687721419530  0.2539584046650211
  0.3355276009854035  0.6717789350227505 -0.0049965893883177
  0.6682538783134881  0.3420711268808352 -0.0122095790714737
  0.6632677658930234 -0.0140951031530857 -0.0013720760922371
  0.6695527983347334  0.3454451194095807  0.5037978351955777
  0.4969568479585705  0.5042237275182214  0.2475021770056033
  0.8030441065776173  0.1682824628765718  0.2426809800859626
  0.1926988658014671  0.1748718331148850  0.2712640694716306
  0.3258299663613801 -0.0257442232784710  0.4857172207172480
  0.1895874865715358  0.4895307422259970  0.7440912951645887
  0.4869245859364267  0.8218230418870480  0.7508873642836703
  0.0251927334769753 -0.0214383692301948  0.5115195496484815
  0.4848174602093485  0.8170450976806803  0.2547589920846691
  0.8245621307267865  0.4950292272022385  0.7602925355642302
  0.3352531047144307  0.6703239808464562  0.5055224436924733
  0.4933887487934142  0.4989276880036340  0.7518976427380148
  0.1771035554921100  0.8384851155457784  0.7413941041816551
  0.3330245911842654  0.3485190709965009 -0.0053090035603858
  0.1717102085432795  0.8330846259850988  0.2673535199168388
  0.3326291072401213  0.3493573096890920  0.4975606618164173
  0.8346729036059988  0.8448184921181146  0.7566474570779997
  0.0034364821123373  0.3283366329147784  0.0024423377029203
 -0.0019442970812733  0.3315452754572561  0.4824582849326192
  0.6378002541492208 -0.0165918642191806  0.4998973981613472
  0.6599387902875624  0.6705119849462335  0.5178623378696344
  0.3315130432456184 -0.0080628478127947  0.0110142197310714
  0.4931293522414847  0.1718982332706619  0.7471283567591820
  0.0109664879367856  0.6699388507914453 -0.0123140797497010
 
  0.00000000E+00  0.00000000E+00  0.00000000E+00
  0.00000000E+00  0.00000000E+00  0.00000000E+00
  0.00000000E+00  0.00000000E+00  0.00000000E+00
  0.00000000E+00  0.00000000E+00  0.00000000E+00
  0.00000000E+00  0.00000000E+00  0.00000000E+00
  0.00000000E+00  0.00000000E+00  0.00000000E+00
  0.00000000E+00  0.00000000E+00  0.00000000E+00
  0.00000000E+00  0.00000000E+00  0.00000000E+00
  0.00000000E+00  0.00000000E+00  0.00000000E+00
  0.00000000E+00  0.00000000E+00  0.00000000E+00
  0.00000000E+00  0.00000000E+00  0.00000000E+00
  0.00000000E+00  0.00000000E+00  0.00000000E+00
  0.00000000E+00  0.00000000E+00  0.00000000E+00
  0.00000000E+00  0.00000000E+00  0.00000000E+00
  0.00000000E+00  0.00000000E+00  0.00000000E+00
  0.00000000E+00  0.00000000E+00  0.00000000E+00
  0.00000000E+00  0.00000000E+00  0.00000000E+00
  0.00000000E+00  0.00000000E+00  0.00000000E+00
  0.00000000E+00  0.00000000E+00  0.00000000E+00
  0.00000000E+00  0.00000000E+00  0.00000000E+00
  0.00000000E+00  0.00000000E+00  0.00000000E+00
  0.00000000E+00  0.00000000E+00  0.00000000E+00
  0.00000000E+00  0.00000000E+00  0.00000000E+00
  0.00000000E+00  0.00000000E+00  0.00000000E+00
  0.00000000E+00  0.00000000E+00  0.00000000E+00
  0.00000000E+00  0.00000000E+00  0.00000000E+00
  0.00000000E+00  0.00000000E+00  0.00000000E+00
  0.00000000E+00  0.00000000E+00  0.00000000E+00
  0.00000000E+00  0.00000000E+00  0.00000000E+00
  0.00000000E+00  0.00000000E+00  0.00000000E+00
  0.00000000E+00  0.00000000E+00  0.00000000E+00
  0.00000000E+00  0.00000000E+00  0.00000000E+00
  0.00000000E+00  0.00000000E+00  0.00000000E+00
  0.00000000E+00  0.00000000E+00  0.00000000E+00
  0.00000000E+00  0.00000000E+00  0.00000000E+00
  0.00000000E+00  0.00000000E+00  0.00000000E+00
