title                                   
    1.000000000000000     
     9.4278558494190214    0.0612134163518220    0.0135655084409879
     0.0611562347703793    9.4127551725058058    0.0190497196053393
     0.0088881592828143    0.0129170614946818    6.3183677480441647
   Cr   Hf   Mo   V    W 
     7     7     8     7     7
Direct
  0.5102040971898576  0.1603555394911606  0.7553203641435866
  0.0028622532049183  0.3363852520929242 -0.0030086788664638
  0.8368127179710841  0.1677566668066513  0.7672011811660553
 -0.0037031446761108  0.0141653794125966  0.0055386228354947
  0.3309107568807511  0.6661620599648127  0.0021610034799104
  0.1596225447400976  0.8265619199321228  0.7523510611621096
  0.1615801068815299  0.4968352613810141  0.7679059647695623
  0.0008432505636742  0.0089658951993870  0.5020072321332671
  0.6741326575019264  0.3279542948249387  0.5043321377642621
  0.6686885833648094  0.6602035873757489  0.4971279452879467
  0.3303778221018597  0.6636295788279726  0.5114306804917151
  0.3251715901083792  0.0033235056884197 -0.0193231123325318
  0.3325752106438734  0.3282246022769402  0.5133067651320270
  0.8347431181419801  0.8404199004677376  0.7660048631672959
  0.0065612310213655  0.6641990836996778  0.0005690458131074
  0.1630883791103839  0.4996370905181755  0.2384866969685387
  0.8355039126022996  0.1669693957268887  0.2318259192990078
  0.4992262079064779  0.4944369053656352  0.7692212966572921
  0.5012102283085338  0.8353829172874695  0.7520355554632919
  0.4978117404060844  0.4953632213716245  0.2362461112158138
  0.6637632941282995  0.0045767851858356  0.4950691797942284
  0.1608312631244611  0.1750383122776378  0.2402545592830452
  0.6724685868539195  0.3257857926735751 -0.0043290241195858
  0.3333128787572127  0.3375380410180862 -0.0004100609969065
  0.1474674448517934  0.1831610919610818  0.7623157794142937
  0.6589676790509308  0.0077357225080133 -0.0033424568047533
  0.8329622945805629  0.8348108434264506  0.2384523675444341
  0.0021444388701328  0.3341317174395976  0.5022457924166454
  0.8480523314092832  0.4948435796427844  0.2380387864103310
  0.1622257797434232  0.8317535962795245  0.2398015531477336
  0.3293883685844760 -0.0017085262511363  0.4938847580300333
  0.8463716191901316  0.4946456641131962  0.7643603145004277
  0.6645932591265453  0.6604416773411539  0.0055152706657580
  0.5038331774443948  0.1625468629643563  0.2377983933155835
  0.0067600857210816  0.6630689137961880  0.4992473670897665
  0.4986342345895784  0.8346978679117563  0.2403567645576735
 
  0.00000000E+00  0.00000000E+00  0.00000000E+00
  0.00000000E+00  0.00000000E+00  0.00000000E+00
  0.00000000E+00  0.00000000E+00  0.00000000E+00
  0.00000000E+00  0.00000000E+00  0.00000000E+00
  0.00000000E+00  0.00000000E+00  0.00000000E+00
  0.00000000E+00  0.00000000E+00  0.00000000E+00
  0.00000000E+00  0.00000000E+00  0.00000000E+00
  0.00000000E+00  0.00000000E+00  0.00000000E+00
  0.00000000E+00  0.00000000E+00  0.00000000E+00
  0.00000000E+00  0.00000000E+00  0.00000000E+00
  0.00000000E+00  0.00000000E+00  0.00000000E+00
  0.00000000E+00  0.00000000E+00  0.00000000E+00
  0.00000000E+00  0.00000000E+00  0.00000000E+00
  0.00000000E+00  0.00000000E+00  0.00000000E+00
  0.00000000E+00  0.00000000E+00  0.00000000E+00
  0.00000000E+00  0.00000000E+00  0.00000000E+00
  0.00000000E+00  0.00000000E+00  0.00000000E+00
  0.00000000E+00  0.00000000E+00  0.00000000E+00
  0.00000000E+00  0.00000000E+00  0.00000000E+00
  0.00000000E+00  0.00000000E+00  0.00000000E+00
  0.00000000E+00  0.00000000E+00  0.00000000E+00
  0.00000000E+00  0.00000000E+00  0.00000000E+00
  0.00000000E+00  0.00000000E+00  0.00000000E+00
  0.00000000E+00  0.00000000E+00  0.00000000E+00
  0.00000000E+00  0.00000000E+00  0.00000000E+00
  0.00000000E+00  0.00000000E+00  0.00000000E+00
  0.00000000E+00  0.00000000E+00  0.00000000E+00
  0.00000000E+00  0.00000000E+00  0.00000000E+00
  0.00000000E+00  0.00000000E+00  0.00000000E+00
  0.00000000E+00  0.00000000E+00  0.00000000E+00
  0.00000000E+00  0.00000000E+00  0.00000000E+00
  0.00000000E+00  0.00000000E+00  0.00000000E+00
  0.00000000E+00  0.00000000E+00  0.00000000E+00
  0.00000000E+00  0.00000000E+00  0.00000000E+00
  0.00000000E+00  0.00000000E+00  0.00000000E+00
  0.00000000E+00  0.00000000E+00  0.00000000E+00
