title                                   
    1.000000000000000     
     9.4047571944976252    0.0006278376461302    0.0220089441284208
     0.0006292806813723    9.4265224368414025    0.0051419959343758
     0.0146740874918050    0.0034339025241144    6.2677898391116358
   Cr   Mo   Nb   W 
     9     9     9     9
Direct
  0.1629519573722402  0.1652876265954485  0.2479361008777941
  0.1627888163113377  0.8381223523116588  0.2506619011294854
  0.0003645087060448  0.3222115669758038 -0.0030427055733777
  0.1607630701786565  0.1664219459865111  0.7551628248801006
  0.4984204814701235  0.4977391924508413  0.2513382652539454
  0.0020510744400529  0.0045356189267554 -0.0010677926262719
 -0.0019189713631972  0.6714326814757858  0.0030137505979966
  0.4980033239146991  0.1672453641894319  0.7485961244165413
  0.8404999247161811  0.1649891615909286  0.7539719324702168
  0.8380642201039625  0.8388602415951444  0.7534678777076976
  0.6679326378289610  0.6650948117801947  0.4952517961809047
  0.4995968107648411  0.1670338327391583  0.2498206903852956
  0.6686562079291396  0.3300818135110723 -0.0025359616525681
  0.1619591239745106  0.8381161125249956  0.7552913137566186
  0.8374318162266515  0.4961861091672896  0.7543173240134110
  0.6701364312914153  0.0045019178927090  0.5017396746751254
  0.3271518808456637  0.0044535068849095  0.4994452887413357
  0.6703935660652225  0.0051916111768949 -0.0049609623773882
  0.0010299826954827  0.6715547281462731  0.4993635271515299
  0.3302032608584537  0.6692980428481030  0.0064515843154803
  0.6666412800997289  0.3288647652548123  0.5008052116165738
  0.4991014223092443  0.4967700890668166  0.7490685056485782
  0.3241358831107428  0.0065505909901029  0.0021845225718022
  0.1621452691299044  0.4954837517311208  0.7557804017798618
  0.5006182850183928  0.8385803059943880  0.7472189540083226
  0.6695859085735025  0.6651270220149164  0.0014699848601055
  0.1627796311768009  0.4955478678529713  0.2464953937916760
  0.8395587552999941  0.8377256052974151  0.2444621489041349
  0.0044145446379545  0.0042675337655022  0.5010107909364701
  0.8402532110156601  0.1651002332479051  0.2401295957710069
 -0.0000627251585482  0.3246106913900054  0.5035643912054366
  0.3319518625711916  0.6682837469188981  0.4948723041726427
  0.3322599258126596  0.3254981385168622  0.4999257229910460
  0.8371928828328232  0.4971444196317907  0.2444681998910966
  0.3321067594485643  0.3255553292634065  0.0012743089157970
  0.5008369797909425  0.8365316702931750  0.2530470086115783
 
  0.00000000E+00  0.00000000E+00  0.00000000E+00
  0.00000000E+00  0.00000000E+00  0.00000000E+00
  0.00000000E+00  0.00000000E+00  0.00000000E+00
  0.00000000E+00  0.00000000E+00  0.00000000E+00
  0.00000000E+00  0.00000000E+00  0.00000000E+00
  0.00000000E+00  0.00000000E+00  0.00000000E+00
  0.00000000E+00  0.00000000E+00  0.00000000E+00
  0.00000000E+00  0.00000000E+00  0.00000000E+00
  0.00000000E+00  0.00000000E+00  0.00000000E+00
  0.00000000E+00  0.00000000E+00  0.00000000E+00
  0.00000000E+00  0.00000000E+00  0.00000000E+00
  0.00000000E+00  0.00000000E+00  0.00000000E+00
  0.00000000E+00  0.00000000E+00  0.00000000E+00
  0.00000000E+00  0.00000000E+00  0.00000000E+00
  0.00000000E+00  0.00000000E+00  0.00000000E+00
  0.00000000E+00  0.00000000E+00  0.00000000E+00
  0.00000000E+00  0.00000000E+00  0.00000000E+00
  0.00000000E+00  0.00000000E+00  0.00000000E+00
  0.00000000E+00  0.00000000E+00  0.00000000E+00
  0.00000000E+00  0.00000000E+00  0.00000000E+00
  0.00000000E+00  0.00000000E+00  0.00000000E+00
  0.00000000E+00  0.00000000E+00  0.00000000E+00
  0.00000000E+00  0.00000000E+00  0.00000000E+00
  0.00000000E+00  0.00000000E+00  0.00000000E+00
  0.00000000E+00  0.00000000E+00  0.00000000E+00
  0.00000000E+00  0.00000000E+00  0.00000000E+00
  0.00000000E+00  0.00000000E+00  0.00000000E+00
  0.00000000E+00  0.00000000E+00  0.00000000E+00
  0.00000000E+00  0.00000000E+00  0.00000000E+00
  0.00000000E+00  0.00000000E+00  0.00000000E+00
  0.00000000E+00  0.00000000E+00  0.00000000E+00
  0.00000000E+00  0.00000000E+00  0.00000000E+00
  0.00000000E+00  0.00000000E+00  0.00000000E+00
  0.00000000E+00  0.00000000E+00  0.00000000E+00
  0.00000000E+00  0.00000000E+00  0.00000000E+00
  0.00000000E+00  0.00000000E+00  0.00000000E+00
