title                                   
    1.000000000000000     
     9.4929655990931234    0.1938250844929557   -0.0075109089671322
     0.1939518886657518    9.4740761631075738   -0.0341478133648504
    -0.0045219411900200   -0.0235216496296919    6.3389706342577865
   Cr   Nb   Ti   V    Zr
    11    15     3     4     3
Direct
  0.5229142462686479  0.5015056726331204  0.2382735767011223
  0.6800920764818092  0.6511054074201087  0.0095031110877170
  0.3188455847422657  0.0030037162834399  0.5134173231785270
  0.1626378129828332  0.8405960563043527  0.7517046027942059
  0.6654943208704034  0.3436447072726895  0.0073339362847782
  0.0098296487252522 -0.0100354827311440  0.0015649390126133
 -0.0083823274076062  0.3331435465873540  0.5014502892302746
  0.1593928806758777  0.8375626259873746  0.2542064040272052
 -0.0013728364109739  0.6687768788161059  0.4984647944412732
  0.6778541607438823  0.6513368828729752  0.4839392552904079
  0.1697833573571272  0.1496759072680767  0.7400975283307755
  0.5068272552467231  0.8251167367419557  0.2495061902913492
  0.0086309120130698 -0.0069620949894525  0.5081212386211764
  0.3212021607297560 -0.0025711525677454 -0.0015524415583120
  0.6695596905614565  0.0057059070102132  0.5018112721308010
  0.8391795647962721  0.8236484083623979  0.7503598308032754
  0.8346630642607918  0.1705330452207299  0.7524820342396444
  0.3328313423745136  0.3292536915028703  0.5040692794984412
  0.1490904404026177  0.5068187149799686  0.7298417675268982
  0.1596400599499102  0.1580718297772742  0.2654765380741163
  0.5004385806443432  0.1657039751069569  0.2518880914911404
  0.6737121210236825  0.0076188026709121  0.0057283870161100
  0.1510116453515191  0.5074562964177510  0.2652225087521201
  0.5169080590872652  0.5020889061077157  0.7490412717585797
  0.6684942212945000  0.3383940675074541  0.4882045397330589
  0.3273605905202173  0.6710062064226345  0.4881781635923994
  0.8360905130671792  0.8229047728008656  0.2544924465625839
  0.0081630997434167  0.6784623163075275 -0.0006805311937260
  0.3208565067503630  0.6729601991469595  0.0057215078885657
  0.8250266007770821  0.5152788125207496  0.2563855243781797
  0.8291356624814269  0.5100388410807292  0.7313134793102810
  0.4991644007072320  0.1626221902493793  0.7470965685140302
  0.8332518723489464  0.1702117275831790  0.2537334007654286
  0.3346142466905605  0.3354986092919970 -0.0044631965479809
  0.5060596311203681  0.8278915800616672  0.7497769746954653
 -0.0090011669727312  0.3319316919708552 -0.0017106067225268
 
  0.00000000E+00  0.00000000E+00  0.00000000E+00
  0.00000000E+00  0.00000000E+00  0.00000000E+00
  0.00000000E+00  0.00000000E+00  0.00000000E+00
  0.00000000E+00  0.00000000E+00  0.00000000E+00
  0.00000000E+00  0.00000000E+00  0.00000000E+00
  0.00000000E+00  0.00000000E+00  0.00000000E+00
  0.00000000E+00  0.00000000E+00  0.00000000E+00
  0.00000000E+00  0.00000000E+00  0.00000000E+00
  0.00000000E+00  0.00000000E+00  0.00000000E+00
  0.00000000E+00  0.00000000E+00  0.00000000E+00
  0.00000000E+00  0.00000000E+00  0.00000000E+00
  0.00000000E+00  0.00000000E+00  0.00000000E+00
  0.00000000E+00  0.00000000E+00  0.00000000E+00
  0.00000000E+00  0.00000000E+00  0.00000000E+00
  0.00000000E+00  0.00000000E+00  0.00000000E+00
  0.00000000E+00  0.00000000E+00  0.00000000E+00
  0.00000000E+00  0.00000000E+00  0.00000000E+00
  0.00000000E+00  0.00000000E+00  0.00000000E+00
  0.00000000E+00  0.00000000E+00  0.00000000E+00
  0.00000000E+00  0.00000000E+00  0.00000000E+00
  0.00000000E+00  0.00000000E+00  0.00000000E+00
  0.00000000E+00  0.00000000E+00  0.00000000E+00
  0.00000000E+00  0.00000000E+00  0.00000000E+00
  0.00000000E+00  0.00000000E+00  0.00000000E+00
  0.00000000E+00  0.00000000E+00  0.00000000E+00
  0.00000000E+00  0.00000000E+00  0.00000000E+00
  0.00000000E+00  0.00000000E+00  0.00000000E+00
  0.00000000E+00  0.00000000E+00  0.00000000E+00
  0.00000000E+00  0.00000000E+00  0.00000000E+00
  0.00000000E+00  0.00000000E+00  0.00000000E+00
  0.00000000E+00  0.00000000E+00  0.00000000E+00
  0.00000000E+00  0.00000000E+00  0.00000000E+00
  0.00000000E+00  0.00000000E+00  0.00000000E+00
  0.00000000E+00  0.00000000E+00  0.00000000E+00
  0.00000000E+00  0.00000000E+00  0.00000000E+00
  0.00000000E+00  0.00000000E+00  0.00000000E+00
