title                                   
    1.000000000000000     
     9.7225963277714005    0.0086099903271979    0.0133329257851645
     0.0082035699138850    9.8212211235688542   -0.0326886821237813
     0.0095266806483365   -0.0229263792696162    6.4136819346358109
   Cr   Ta   Ti   W    Zr
     7     8     7     7     7
Direct
  0.8172465143641093  0.5010651128753908  0.7538988638235423
  0.5031936762443386  0.4996110818142511  0.7566583136767043
  0.1650552816159010  0.1760149448241017  0.7454436648475854
  0.5071032348259059  0.8092171154387204  0.7449580944242553
  0.6646626493819575  0.3594112956312612 -0.0195272566983215
  0.3410280118281838  0.3341697335902348 -0.0060550136330767
  0.8194797467190006  0.5049591284385960  0.2489105132968479
  0.3466749371791799  0.6682412200435830 -0.0102562469191884
 -0.0090238054111339  0.3374561352328199  0.5090004022335687
  0.5066911404977602  0.1938356516854135  0.7645137468618824
  0.1716318514930502  0.1781718656710026  0.2521791618743130
  0.0082049285207721  0.0106586945211571  0.0012351090756884
  0.5090480511185687  0.8183558046405000  0.2606854149018115
  0.5037945940807421  0.4943624806931118  0.2446235987110067
 -0.0173440133141063  0.6504515768675079  0.0105814131764620
  0.8278021958188009  0.1591089382915734  0.2691087079980855
  0.1836634544406125  0.4922354605276639  0.7496923334294042
  0.5005195052748027  0.1943768291246159  0.2443422985267170
  0.6794798235483678  0.3533066461615944  0.5119332956228020
 -0.0177531549546804  0.6406471001510459  0.4859914594839441
  0.8318160388015461  0.8335109375296639  0.2585696624921976
  0.8245292890041097  0.1600799311544062  0.7298826533697589
  0.1609879928731723  0.8265577275891777  0.2524347164458661
  0.6667772885288681  0.6572840162831216 -0.0068014878436922
  0.6695561830245846  0.6527090793960059  0.5061582688387504
  0.6574620344409715 -0.0010525242580823  0.5010246424748499
  0.3400630522529174  0.3335840996130346  0.5145030546064006
  0.0089750102696567  0.0111799415247946  0.4927065161081141
  0.3479764484568836  0.6654251796476396  0.5061650141303191
  0.1811219353331734  0.4964070664626714  0.2480132723713326
  0.8331923292626817  0.8347080501426937  0.7408611648986688
 -0.0161510053858299  0.3340983444160435 -0.0085214841805104
  0.6547092145851653 -0.0036758194092925 -0.0016001284693835
  0.1568226020389555  0.8200294445894138  0.7406794853215696
  0.3325823092697109  0.0002670000686921 -0.0022306927187989
  0.3384206539712992  0.0032307090258715  0.5102374674405241
 
  0.00000000E+00  0.00000000E+00  0.00000000E+00
  0.00000000E+00  0.00000000E+00  0.00000000E+00
  0.00000000E+00  0.00000000E+00  0.00000000E+00
  0.00000000E+00  0.00000000E+00  0.00000000E+00
  0.00000000E+00  0.00000000E+00  0.00000000E+00
  0.00000000E+00  0.00000000E+00  0.00000000E+00
  0.00000000E+00  0.00000000E+00  0.00000000E+00
  0.00000000E+00  0.00000000E+00  0.00000000E+00
  0.00000000E+00  0.00000000E+00  0.00000000E+00
  0.00000000E+00  0.00000000E+00  0.00000000E+00
  0.00000000E+00  0.00000000E+00  0.00000000E+00
  0.00000000E+00  0.00000000E+00  0.00000000E+00
  0.00000000E+00  0.00000000E+00  0.00000000E+00
  0.00000000E+00  0.00000000E+00  0.00000000E+00
  0.00000000E+00  0.00000000E+00  0.00000000E+00
  0.00000000E+00  0.00000000E+00  0.00000000E+00
  0.00000000E+00  0.00000000E+00  0.00000000E+00
  0.00000000E+00  0.00000000E+00  0.00000000E+00
  0.00000000E+00  0.00000000E+00  0.00000000E+00
  0.00000000E+00  0.00000000E+00  0.00000000E+00
  0.00000000E+00  0.00000000E+00  0.00000000E+00
  0.00000000E+00  0.00000000E+00  0.00000000E+00
  0.00000000E+00  0.00000000E+00  0.00000000E+00
  0.00000000E+00  0.00000000E+00  0.00000000E+00
  0.00000000E+00  0.00000000E+00  0.00000000E+00
  0.00000000E+00  0.00000000E+00  0.00000000E+00
  0.00000000E+00  0.00000000E+00  0.00000000E+00
  0.00000000E+00  0.00000000E+00  0.00000000E+00
  0.00000000E+00  0.00000000E+00  0.00000000E+00
  0.00000000E+00  0.00000000E+00  0.00000000E+00
  0.00000000E+00  0.00000000E+00  0.00000000E+00
  0.00000000E+00  0.00000000E+00  0.00000000E+00
  0.00000000E+00  0.00000000E+00  0.00000000E+00
  0.00000000E+00  0.00000000E+00  0.00000000E+00
  0.00000000E+00  0.00000000E+00  0.00000000E+00
  0.00000000E+00  0.00000000E+00  0.00000000E+00
