title                                   
    1.000000000000000     
     9.7366892938530150    0.0101491811660748    0.0103887629468893
     0.0101462582718199    9.7140082361336084    0.0552356837896237
     0.0068767495293266    0.0367157201351013    6.5405290361038251
   Mo   Nb   Ta   Ti
     9     9     9     9
Direct
  0.3331044149089860  0.3344050412049537  0.5029965520401600
 -0.0032939569136723  0.0015108966698027 -0.0028238927301765
  0.3334185818259623  0.0035168882514725  0.0023484856883716
  0.8343522101408269  0.8372077042238718  0.7464469597341280
  0.1679890083833872  0.5032341393739600  0.2505209003284649
  0.8334103012000660  0.1612243407825326  0.2521970890723625
  0.8373548721864937  0.4968942882924046  0.7480797696610766
  0.6683209697120547 -0.0000692841645267  0.0016879186306385
  0.3351176509807748  0.6625600102356405 -0.0028346442935469
  0.4989074742357377  0.1675328789698614  0.2588906478098058
  0.1666641409161848  0.1639422364843648  0.7567424942862413
  0.4972043396685831  0.5041997582714733  0.2532440662634780
 -0.0073548961176813  0.6602671378973209 -0.0140993996474580
 -0.0047428922919066  0.3343148333150999  0.5029228579080818
  0.4904681734118755  0.4990924198160799  0.7502968830252766
  0.8343384505758690  0.5052885617875472  0.2520725518437866
  0.1672723429661716  0.1643863424095041  0.2556994240106612
  0.5010580077364664  0.8372552280987646  0.2316607349895304
  0.0022025965899298  0.6684947169803254  0.4942066829117473
  0.6709610474233996 -0.0001813843281516  0.5006403999261495
  0.6701314182958450  0.6668843391915517  0.5052127237248883
 -0.0037215359639864 -0.0048151472807790  0.4988223294501657
  0.3302226263612115  0.3346206134438805  0.0123997830443826
  0.3328433528970133 -0.0040632761328716  0.4975733724742928
  0.3270527577627027  0.6720336430976249  0.4893778431791486
  0.6702999727072436  0.3374756182870912  0.0117957047863452
 -0.0000426542084569  0.3352548992692025  0.0102156855475678
  0.4934183356337160  0.8380944249931772  0.7584968956493919
  0.8326940026236112  0.1583612746436436  0.7686696905509559
  0.6736072410425960  0.6623360485971249 -0.0233963486948732
  0.1720848126040746  0.8316760344457459  0.7651371758447688
  0.6722148184053096  0.3342866592897693  0.5074235570319552
  0.1651758467985990  0.8381519613805649  0.2145309283461226
  0.8322335637974231  0.8393173142735459  0.2308308098469240
  0.1733589655780656  0.4978213529404286  0.7455695396506071
  0.5016736381255228  0.1574874849879973  0.7664438281085768
 
  0.00000000E+00  0.00000000E+00  0.00000000E+00
  0.00000000E+00  0.00000000E+00  0.00000000E+00
  0.00000000E+00  0.00000000E+00  0.00000000E+00
  0.00000000E+00  0.00000000E+00  0.00000000E+00
  0.00000000E+00  0.00000000E+00  0.00000000E+00
  0.00000000E+00  0.00000000E+00  0.00000000E+00
  0.00000000E+00  0.00000000E+00  0.00000000E+00
  0.00000000E+00  0.00000000E+00  0.00000000E+00
  0.00000000E+00  0.00000000E+00  0.00000000E+00
  0.00000000E+00  0.00000000E+00  0.00000000E+00
  0.00000000E+00  0.00000000E+00  0.00000000E+00
  0.00000000E+00  0.00000000E+00  0.00000000E+00
  0.00000000E+00  0.00000000E+00  0.00000000E+00
  0.00000000E+00  0.00000000E+00  0.00000000E+00
  0.00000000E+00  0.00000000E+00  0.00000000E+00
  0.00000000E+00  0.00000000E+00  0.00000000E+00
  0.00000000E+00  0.00000000E+00  0.00000000E+00
  0.00000000E+00  0.00000000E+00  0.00000000E+00
  0.00000000E+00  0.00000000E+00  0.00000000E+00
  0.00000000E+00  0.00000000E+00  0.00000000E+00
  0.00000000E+00  0.00000000E+00  0.00000000E+00
  0.00000000E+00  0.00000000E+00  0.00000000E+00
  0.00000000E+00  0.00000000E+00  0.00000000E+00
  0.00000000E+00  0.00000000E+00  0.00000000E+00
  0.00000000E+00  0.00000000E+00  0.00000000E+00
  0.00000000E+00  0.00000000E+00  0.00000000E+00
  0.00000000E+00  0.00000000E+00  0.00000000E+00
  0.00000000E+00  0.00000000E+00  0.00000000E+00
  0.00000000E+00  0.00000000E+00  0.00000000E+00
  0.00000000E+00  0.00000000E+00  0.00000000E+00
  0.00000000E+00  0.00000000E+00  0.00000000E+00
  0.00000000E+00  0.00000000E+00  0.00000000E+00
  0.00000000E+00  0.00000000E+00  0.00000000E+00
  0.00000000E+00  0.00000000E+00  0.00000000E+00
  0.00000000E+00  0.00000000E+00  0.00000000E+00
  0.00000000E+00  0.00000000E+00  0.00000000E+00
