title                                   
    1.000000000000000     
     9.8973855530339403   -0.0411252107343506   -0.0945408098772016
    -0.0411764814776808    9.8299550851507327   -0.0118415665556613
    -0.0631877922641572   -0.0080976244168564    6.6089120379096391
   Cr   Hf   Mo   Nb   Zr
     7     7     7     8     7
Direct
  0.6405254118993449 -0.0176280115314648  0.0046400588297348
  0.5157570509497285  0.8283021595105929  0.2182164690375626
  0.5163545958002685  0.8333247987140604  0.7774750966846631
  0.0123636537427343  0.3192115160659181  0.0201594889041888
  0.1511049654513267  0.1823866631540704  0.2158017859548748
 -0.0191554119105851  0.0088601171339054  0.5022773881222237
  0.3342734909175209  0.3402935202477601  0.4930453972102486
  0.1756079477294430  0.4996994898618238  0.2477504474857071
  0.3288090582629769  0.0028048387030968  0.4882097825309114
  0.6449937666383903 -0.0102712463609174  0.4884456238547864
  0.3328489739489122 -0.0089486383360402 -0.0041377974219623
  0.4963370419381788  0.1770031848963795  0.7514877490900916
  0.8285376738395163  0.8293174766913329  0.2456340202004859
  0.8270721960102333  0.8296381198075164  0.7565461035549728
  0.1498227329980712  0.8373324351557097  0.7511405591988646
 -0.0027892469738610  0.0086550848769693  0.0009427988290108
  0.6607325380442297  0.6692308878904490  0.4947824435279320
  0.8419131324026041  0.1490359280782681  0.2455761051026728
  0.1761385756275220  0.5018109706481152  0.7566059761629024
  0.0095064895595357  0.6627050141387386 -0.0052643259943024
  0.6588206963381369  0.6706234631431408  0.0064777310278294
  0.4908612415189844  0.1757506308394904  0.2436613948796811
  0.6800589146276549  0.3203381460827086  0.0241920340778808
  0.5054783840278919  0.5060757414143511  0.2536215296939901
  0.3278019695570404  0.3370659727677946  0.0057438967391356
  0.3407449630476627  0.6825442954865384 -0.0070489056317372
  0.8365024762578419  0.1455490717926896  0.7640608113837946
  0.8418505065037913  0.5056317362755023  0.2436839809581489
  0.0130571718854147  0.6619306229493930  0.5178562091003022
  0.8440865784331026  0.4995722687301044  0.7696897119762386
  0.5062201202632365  0.4991580225334666  0.7500125441774431
  0.1601450137741574  0.1723995025180631  0.7449814095499554
  0.3443012034541671  0.6916880097359415  0.5088706891890187
  0.6841942558174328  0.3213393625479256  0.4868430741296169
  0.0044978780945797  0.3266023043448340  0.4884365771845666
  0.1406239895228128  0.8409665394917718  0.2495821406985658
 
  0.00000000E+00  0.00000000E+00  0.00000000E+00
  0.00000000E+00  0.00000000E+00  0.00000000E+00
  0.00000000E+00  0.00000000E+00  0.00000000E+00
  0.00000000E+00  0.00000000E+00  0.00000000E+00
  0.00000000E+00  0.00000000E+00  0.00000000E+00
  0.00000000E+00  0.00000000E+00  0.00000000E+00
  0.00000000E+00  0.00000000E+00  0.00000000E+00
  0.00000000E+00  0.00000000E+00  0.00000000E+00
  0.00000000E+00  0.00000000E+00  0.00000000E+00
  0.00000000E+00  0.00000000E+00  0.00000000E+00
  0.00000000E+00  0.00000000E+00  0.00000000E+00
  0.00000000E+00  0.00000000E+00  0.00000000E+00
  0.00000000E+00  0.00000000E+00  0.00000000E+00
  0.00000000E+00  0.00000000E+00  0.00000000E+00
  0.00000000E+00  0.00000000E+00  0.00000000E+00
  0.00000000E+00  0.00000000E+00  0.00000000E+00
  0.00000000E+00  0.00000000E+00  0.00000000E+00
  0.00000000E+00  0.00000000E+00  0.00000000E+00
  0.00000000E+00  0.00000000E+00  0.00000000E+00
  0.00000000E+00  0.00000000E+00  0.00000000E+00
  0.00000000E+00  0.00000000E+00  0.00000000E+00
  0.00000000E+00  0.00000000E+00  0.00000000E+00
  0.00000000E+00  0.00000000E+00  0.00000000E+00
  0.00000000E+00  0.00000000E+00  0.00000000E+00
  0.00000000E+00  0.00000000E+00  0.00000000E+00
  0.00000000E+00  0.00000000E+00  0.00000000E+00
  0.00000000E+00  0.00000000E+00  0.00000000E+00
  0.00000000E+00  0.00000000E+00  0.00000000E+00
  0.00000000E+00  0.00000000E+00  0.00000000E+00
  0.00000000E+00  0.00000000E+00  0.00000000E+00
  0.00000000E+00  0.00000000E+00  0.00000000E+00
  0.00000000E+00  0.00000000E+00  0.00000000E+00
  0.00000000E+00  0.00000000E+00  0.00000000E+00
  0.00000000E+00  0.00000000E+00  0.00000000E+00
  0.00000000E+00  0.00000000E+00  0.00000000E+00
  0.00000000E+00  0.00000000E+00  0.00000000E+00
