title                                   
    1.000000000000000     
     9.2001432920120010    0.0002915026360005   -0.0013098841512021
     0.0002943914937270    9.1934503377584349   -0.0166731557183230
    -0.0008743439827904   -0.0111225039277082    6.1274509634933363
   Cr   Mo   Nb   Ti   W 
    15     6     2     1    12
Direct
  0.3334202778997079 -0.0028241012315105  0.5033323434207653
  0.8308335084788928  0.1593292514192569  0.7509751224282726
  0.6653043385822817  0.6727599366177055 -0.0003964659636829
  0.5048627409003557  0.8338252338621566  0.7490862257552711
 -0.0042875377963693  0.0016520721529972 -0.0015320278955337
  0.6705245247943449 -0.0022152730166631  0.0023170889348006
  0.8289481809581796  0.8388418864765835  0.2505889556083890
  0.8303089009475056  0.1583638319194654  0.2479733027027036
  0.6655730639491922  0.6748369669128897  0.4988914584702465
 -0.0019157964632870  0.6723850139731048  0.4993784302172561
  0.1647945773299404  0.8369568974425099  0.7474661423972013
  0.6703367653844954 -0.0024808733339176  0.4990514737784166
  0.3362404303087235  0.6720006358526305  0.0001095401360550
  0.1656344049039456  0.1597484985345027  0.7494421183597829
  0.6679143759769031  0.3289025604641538  0.5003264162782783
  0.5068847357613517  0.8346860728863843  0.2491875221734270
  0.5036448761388684  0.5045839755298676  0.2507551374136933
  0.3343805922585326  0.3294159847259243 -0.0024258095412527
 -0.0044433737852618 -0.0019302919825252  0.5041212273225174
  0.1673762155274904  0.5046036607763195  0.7513361069227279
  0.5044993942164374  0.5059574341892681  0.7520633461553964
 -0.0045263635173907  0.3257634798432913  0.5030677702833305
 -0.0020621480919505  0.6749990003287265 -0.0016564108999226
  0.3329307206076578 -0.0070341326022467 -0.0133550241680787
  0.3364264906957217  0.6751561528688170  0.5094028931278373
  0.6708450531465616  0.3279458678802282  0.0006274728659272
  0.5073625412374211  0.1583610901968644  0.7443496005936880
 -0.0036961163744014  0.3255164375609207 -0.0026145544031862
  0.1661815175188052  0.8357497696886372  0.2525464704786649
  0.1662033649505631  0.1589820848970987  0.2483345687685036
  0.1677908927225488  0.5041712133322228  0.2504817083154661
  0.5066179184728830  0.1597317256648166  0.2541245932477474
  0.8280984834975913  0.5063676565183699  0.2555869721148475
  0.3343254053786642  0.3314529430216657  0.5033906795917056
  0.8270683192914950  0.5054534903112643  0.7451622793809470
  0.8255987241915992  0.8379838463182201  0.7485033256277912
 
  0.00000000E+00  0.00000000E+00  0.00000000E+00
  0.00000000E+00  0.00000000E+00  0.00000000E+00
  0.00000000E+00  0.00000000E+00  0.00000000E+00
  0.00000000E+00  0.00000000E+00  0.00000000E+00
  0.00000000E+00  0.00000000E+00  0.00000000E+00
  0.00000000E+00  0.00000000E+00  0.00000000E+00
  0.00000000E+00  0.00000000E+00  0.00000000E+00
  0.00000000E+00  0.00000000E+00  0.00000000E+00
  0.00000000E+00  0.00000000E+00  0.00000000E+00
  0.00000000E+00  0.00000000E+00  0.00000000E+00
  0.00000000E+00  0.00000000E+00  0.00000000E+00
  0.00000000E+00  0.00000000E+00  0.00000000E+00
  0.00000000E+00  0.00000000E+00  0.00000000E+00
  0.00000000E+00  0.00000000E+00  0.00000000E+00
  0.00000000E+00  0.00000000E+00  0.00000000E+00
  0.00000000E+00  0.00000000E+00  0.00000000E+00
  0.00000000E+00  0.00000000E+00  0.00000000E+00
  0.00000000E+00  0.00000000E+00  0.00000000E+00
  0.00000000E+00  0.00000000E+00  0.00000000E+00
  0.00000000E+00  0.00000000E+00  0.00000000E+00
  0.00000000E+00  0.00000000E+00  0.00000000E+00
  0.00000000E+00  0.00000000E+00  0.00000000E+00
  0.00000000E+00  0.00000000E+00  0.00000000E+00
  0.00000000E+00  0.00000000E+00  0.00000000E+00
  0.00000000E+00  0.00000000E+00  0.00000000E+00
  0.00000000E+00  0.00000000E+00  0.00000000E+00
  0.00000000E+00  0.00000000E+00  0.00000000E+00
  0.00000000E+00  0.00000000E+00  0.00000000E+00
  0.00000000E+00  0.00000000E+00  0.00000000E+00
  0.00000000E+00  0.00000000E+00  0.00000000E+00
  0.00000000E+00  0.00000000E+00  0.00000000E+00
  0.00000000E+00  0.00000000E+00  0.00000000E+00
  0.00000000E+00  0.00000000E+00  0.00000000E+00
  0.00000000E+00  0.00000000E+00  0.00000000E+00
  0.00000000E+00  0.00000000E+00  0.00000000E+00
  0.00000000E+00  0.00000000E+00  0.00000000E+00
