title                                   
    1.000000000000000     
     9.6065028330864877    0.0466657115263705    0.0438887924248988
     0.0466672340972888    9.5574255118023732    0.0642596047816277
     0.0291076367050288    0.0434713335133194    6.5429542985353866
   Cr   Mo   Nb   Ti   Zr
     8     7     7     7     7
Direct
  0.8264053344514644  0.5154470026547697  0.2481551944302591
  0.3403461765392048  0.6510226758400882 -0.0025966309931276
  0.1800586408414337  0.1688176977358034  0.7295006569530156
  0.8295759556800716  0.1605366091407453  0.2707497790362776
  0.5157740350833252  0.8299668760118197  0.2201130942058563
  0.3320972826121648  0.3225585149733832  0.5140543664619629
  0.6580980890302044  0.6710997211613088  0.0213773870987968
  0.6586314582387846 -0.0110309471665863  0.0251039139727191
  0.5015812115318009  0.5070705710836684  0.2284687706125957
  0.1689759786416246  0.8361359815295117  0.2495758212454276
  0.8206292187289013  0.8385188715228200  0.2515547153697885
  0.6623750740039656  0.6689898767796900  0.4762885542454048
  0.1739541022319544  0.4959279216933434  0.7535712106217483
  0.6616392414273372  0.0001967613666079  0.4829118708809582
  0.0032678399297087  0.0082248523069757  0.4949830763383934
  0.3369134200677300 -0.0044324743080225  0.0024465992402754
  0.1781362101514619  0.4917815166543875  0.2394959952438426
  0.5001975678157470  0.1586844508556203  0.2471060820271805
 -0.0010115789300267  0.6657420345776864  0.4816850294936722
  0.4998489131052173  0.1588619254246043  0.7426982906352545
  0.5006722476793969  0.4988710011281904  0.7486162828686065
  0.0029497160630684  0.3409748494180307  0.0082150969286570
 -0.0047411525356254  0.6636587182682832  0.0302408790972892
  0.1820787124672553  0.1724495414931115  0.2738415245699775
  0.6668212576261306  0.3395708881231690  0.0360940274617972
  0.5075889670476288  0.8237657153401975  0.7668606795640441
  0.3301377151023083  0.3267353259392804 -0.0225311561937260
  0.6674210070405082  0.3405085660854003  0.4628999425453990
  0.3374002596687585 -0.0079252084300937  0.4908957316406905
  0.8206354027292750  0.8382808909532181  0.7541309717959184
  0.3407571493018382  0.6652269155212169  0.4816125465449255
  0.1641218833871627  0.8304235245437778  0.7542812734813322
  0.8200073995269830  0.5144969474012669  0.7611612466362091
  0.8173329708241444  0.1662276353224700  0.7552644410666021
 -0.0003691239444467  0.0170152013449770  0.0195549948661597
 -0.0003085831664618  0.3355990477092802  0.5016177400058173
 
  0.00000000E+00  0.00000000E+00  0.00000000E+00
  0.00000000E+00  0.00000000E+00  0.00000000E+00
  0.00000000E+00  0.00000000E+00  0.00000000E+00
  0.00000000E+00  0.00000000E+00  0.00000000E+00
  0.00000000E+00  0.00000000E+00  0.00000000E+00
  0.00000000E+00  0.00000000E+00  0.00000000E+00
  0.00000000E+00  0.00000000E+00  0.00000000E+00
  0.00000000E+00  0.00000000E+00  0.00000000E+00
  0.00000000E+00  0.00000000E+00  0.00000000E+00
  0.00000000E+00  0.00000000E+00  0.00000000E+00
  0.00000000E+00  0.00000000E+00  0.00000000E+00
  0.00000000E+00  0.00000000E+00  0.00000000E+00
  0.00000000E+00  0.00000000E+00  0.00000000E+00
  0.00000000E+00  0.00000000E+00  0.00000000E+00
  0.00000000E+00  0.00000000E+00  0.00000000E+00
  0.00000000E+00  0.00000000E+00  0.00000000E+00
  0.00000000E+00  0.00000000E+00  0.00000000E+00
  0.00000000E+00  0.00000000E+00  0.00000000E+00
  0.00000000E+00  0.00000000E+00  0.00000000E+00
  0.00000000E+00  0.00000000E+00  0.00000000E+00
  0.00000000E+00  0.00000000E+00  0.00000000E+00
  0.00000000E+00  0.00000000E+00  0.00000000E+00
  0.00000000E+00  0.00000000E+00  0.00000000E+00
  0.00000000E+00  0.00000000E+00  0.00000000E+00
  0.00000000E+00  0.00000000E+00  0.00000000E+00
  0.00000000E+00  0.00000000E+00  0.00000000E+00
  0.00000000E+00  0.00000000E+00  0.00000000E+00
  0.00000000E+00  0.00000000E+00  0.00000000E+00
  0.00000000E+00  0.00000000E+00  0.00000000E+00
  0.00000000E+00  0.00000000E+00  0.00000000E+00
  0.00000000E+00  0.00000000E+00  0.00000000E+00
  0.00000000E+00  0.00000000E+00  0.00000000E+00
  0.00000000E+00  0.00000000E+00  0.00000000E+00
  0.00000000E+00  0.00000000E+00  0.00000000E+00
  0.00000000E+00  0.00000000E+00  0.00000000E+00
  0.00000000E+00  0.00000000E+00  0.00000000E+00
