title                                   
    1.000000000000000     
     9.1000973888823768    0.0190129712870389   -0.0041328034196652
     0.0189930522036790    9.0943682180711001   -0.0016759048055109
    -0.0027504718268759   -0.0011191187470446    6.0731660602968773
   Cr   Mo   Nb   W 
    19     4     3    10
Direct
  0.1675538648625058  0.8339433422061087  0.2600035157540961
  0.4999740456090855  0.1662340162853534  0.7534745152172054
  0.1684330163004591  0.8328402216645928  0.7385604522025488
 -0.0034558931525721  0.3374756048312629  0.4990124261130329
  0.8345204338026737  0.8275639818458637  0.7458172736856076
  0.3369132791331182  0.3337419835939952 -0.0005414142293670
  0.4942182928685372  0.8332568185674387  0.7476562563451615
  0.3318533607130582 -0.0071342715500147  0.5041031654451851
  0.6683789597003498  0.3354524811300811 -0.0015115401127706
  0.6697234731072116  0.3369729961308571  0.4984217455434007
  0.3347327497612065 -0.0044344395698457 -0.0049494964489100
  0.1623675144155163  0.5044708776590988  0.7494104826362923
  0.8310658406546000  0.4985370516053491  0.2508976815641765
 -0.0029649455728965  0.3362065450876885 -0.0002888273597326
  0.6677889170277714  0.6657010780085486 -0.0035398096128846
  0.0007269366258588  0.6688073144496344  0.5052656291603846
  0.0029590123603551 -0.0076661352875565  0.5011381210260029
  0.3298526807920299  0.6743833225828609  0.5041640778544929
  0.6688508880843080  0.6663916124233035  0.5031848547551951
  0.4950147487946081  0.8317239601160700  0.2551007769152551
  0.6627738461394058 -0.0020946002033998  0.5065516620724130
 -0.0000680348871264  0.6663088961311955 -0.0044907161953236
  0.5061213567421289  0.5039462550634352  0.7508399953980470
  0.1619645305926217  0.5011125146912152  0.2535176436949756
  0.1683061235396398  0.1646235513277357  0.7513993517412183
  0.3359837097411235  0.3356292193227304  0.5094957118303334
  0.8342556791575819  0.1726915809953734  0.7468622756798678
  0.1675643041682133  0.1621715177576559  0.2502604630543312
  0.8333483728954072  0.5006493152498183  0.7452613100559456
  0.0024634792495552 -0.0079334495901950 -0.0028601443716527
  0.6630941107515076 -0.0039888246465031 -0.0070957473266809
  0.8351230666345398  0.1729231843248300  0.2520208125404269
  0.5074314258853486  0.5025280881811311  0.2483090010645882
  0.4986872169118368  0.1681224394569708  0.2447117971656931
  0.3301792140042899  0.6724207673622888 -0.0086504512937910
  0.8342644225861410  0.8264211827950286  0.2584871484352353
 
  0.00000000E+00  0.00000000E+00  0.00000000E+00
  0.00000000E+00  0.00000000E+00  0.00000000E+00
  0.00000000E+00  0.00000000E+00  0.00000000E+00
  0.00000000E+00  0.00000000E+00  0.00000000E+00
  0.00000000E+00  0.00000000E+00  0.00000000E+00
  0.00000000E+00  0.00000000E+00  0.00000000E+00
  0.00000000E+00  0.00000000E+00  0.00000000E+00
  0.00000000E+00  0.00000000E+00  0.00000000E+00
  0.00000000E+00  0.00000000E+00  0.00000000E+00
  0.00000000E+00  0.00000000E+00  0.00000000E+00
  0.00000000E+00  0.00000000E+00  0.00000000E+00
  0.00000000E+00  0.00000000E+00  0.00000000E+00
  0.00000000E+00  0.00000000E+00  0.00000000E+00
  0.00000000E+00  0.00000000E+00  0.00000000E+00
  0.00000000E+00  0.00000000E+00  0.00000000E+00
  0.00000000E+00  0.00000000E+00  0.00000000E+00
  0.00000000E+00  0.00000000E+00  0.00000000E+00
  0.00000000E+00  0.00000000E+00  0.00000000E+00
  0.00000000E+00  0.00000000E+00  0.00000000E+00
  0.00000000E+00  0.00000000E+00  0.00000000E+00
  0.00000000E+00  0.00000000E+00  0.00000000E+00
  0.00000000E+00  0.00000000E+00  0.00000000E+00
  0.00000000E+00  0.00000000E+00  0.00000000E+00
  0.00000000E+00  0.00000000E+00  0.00000000E+00
  0.00000000E+00  0.00000000E+00  0.00000000E+00
  0.00000000E+00  0.00000000E+00  0.00000000E+00
  0.00000000E+00  0.00000000E+00  0.00000000E+00
  0.00000000E+00  0.00000000E+00  0.00000000E+00
  0.00000000E+00  0.00000000E+00  0.00000000E+00
  0.00000000E+00  0.00000000E+00  0.00000000E+00
  0.00000000E+00  0.00000000E+00  0.00000000E+00
  0.00000000E+00  0.00000000E+00  0.00000000E+00
  0.00000000E+00  0.00000000E+00  0.00000000E+00
  0.00000000E+00  0.00000000E+00  0.00000000E+00
  0.00000000E+00  0.00000000E+00  0.00000000E+00
  0.00000000E+00  0.00000000E+00  0.00000000E+00
