title                                   
    1.000000000000000     
     9.6343764791534579    0.0016429665546847    0.0174486531878619
     0.0016273694003380    9.6879830920333792    0.0043520979025066
     0.0116452797215032    0.0029128602044345    6.4357419168828613
   Mo   Nb   Ta   Ti
    19     4    10     3
Direct
  0.3321638990654190  0.6631901721891278  0.0037062186913371
  0.8332867452510020  0.5023368892917631  0.7525389974283760
  0.6694645955279027 -0.0040297580649058  0.0000276593620231
  0.6652182727247710  0.3378159744991442 -0.0015302346932463
 -0.0011898744126004  0.6664676133733427  0.0036290500615332
  0.8338830341080961  0.8287651970493711  0.2501187050998662
  0.3308301330817929  0.6670115713757873  0.4994901318362005
  0.1650321122965520  0.5065671790189885  0.2500469539172018
  0.0003997277338685  0.3368316583113780  0.0013664339896678
  0.1667650380871648  0.8312041241840622  0.7495436124564304
  0.5010486689611379  0.5037067103286356  0.7515395726449822
  0.0005072882240181 -0.0031751904540035  0.4993118603703600
  0.8329147634269712  0.5028170705934395  0.2467603235965057
  0.1658030021225110  0.8312214799545796  0.2523539721993310
  0.6668386569139746  0.6602338109055813  0.4991849371207274
  0.3300305502470985 -0.0028854432437097  0.0003759698686117
  0.6677305519327532  0.6606906192484537  0.0019056028338901
  0.5022615439382960  0.5033303392783225  0.2492420132144605
 -0.0009170776803242  0.6649450188448772  0.4975503424781234
  0.8328546184443422  0.8283052194498817  0.7499001381989722
  0.3361896197432760  0.3400860391382543  0.4981883510277920
  0.3312306922294162 -0.0036268272472138  0.4996382932174079
  0.4987998654544414  0.8284761842949714  0.2473375153044227
  0.5026594550968642  0.1651127850899157  0.2427488277719032
  0.8340401109256459  0.1677037715953603  0.2441243177156487
  0.6686403194927613 -0.0040037035855701  0.4967874640745148
  0.1654305625059948  0.1667284045336078  0.2490421922797786
  0.8339374036626647  0.1670113687911263  0.7529972165755927
  0.5021796642543029  0.1645819864017746  0.7547904837513032
  0.0020270297094301 -0.0087236859038315  0.0019211712198057
  0.1643734041412891  0.5068916593031858  0.7518060507567141
  0.4990236211262041  0.8291618914723701  0.7541584178570033
  0.1655070089188985  0.1683254379917647  0.7513111408990009
 -0.0056498481953010  0.3430604055518034  0.4965807324168011
  0.6699825577769112  0.3413479328440309  0.4987262791831769
  0.3367022831624534  0.3425160935943329  0.0027792852737803
 
  0.00000000E+00  0.00000000E+00  0.00000000E+00
  0.00000000E+00  0.00000000E+00  0.00000000E+00
  0.00000000E+00  0.00000000E+00  0.00000000E+00
  0.00000000E+00  0.00000000E+00  0.00000000E+00
  0.00000000E+00  0.00000000E+00  0.00000000E+00
  0.00000000E+00  0.00000000E+00  0.00000000E+00
  0.00000000E+00  0.00000000E+00  0.00000000E+00
  0.00000000E+00  0.00000000E+00  0.00000000E+00
  0.00000000E+00  0.00000000E+00  0.00000000E+00
  0.00000000E+00  0.00000000E+00  0.00000000E+00
  0.00000000E+00  0.00000000E+00  0.00000000E+00
  0.00000000E+00  0.00000000E+00  0.00000000E+00
  0.00000000E+00  0.00000000E+00  0.00000000E+00
  0.00000000E+00  0.00000000E+00  0.00000000E+00
  0.00000000E+00  0.00000000E+00  0.00000000E+00
  0.00000000E+00  0.00000000E+00  0.00000000E+00
  0.00000000E+00  0.00000000E+00  0.00000000E+00
  0.00000000E+00  0.00000000E+00  0.00000000E+00
  0.00000000E+00  0.00000000E+00  0.00000000E+00
  0.00000000E+00  0.00000000E+00  0.00000000E+00
  0.00000000E+00  0.00000000E+00  0.00000000E+00
  0.00000000E+00  0.00000000E+00  0.00000000E+00
  0.00000000E+00  0.00000000E+00  0.00000000E+00
  0.00000000E+00  0.00000000E+00  0.00000000E+00
  0.00000000E+00  0.00000000E+00  0.00000000E+00
  0.00000000E+00  0.00000000E+00  0.00000000E+00
  0.00000000E+00  0.00000000E+00  0.00000000E+00
  0.00000000E+00  0.00000000E+00  0.00000000E+00
  0.00000000E+00  0.00000000E+00  0.00000000E+00
  0.00000000E+00  0.00000000E+00  0.00000000E+00
  0.00000000E+00  0.00000000E+00  0.00000000E+00
  0.00000000E+00  0.00000000E+00  0.00000000E+00
  0.00000000E+00  0.00000000E+00  0.00000000E+00
  0.00000000E+00  0.00000000E+00  0.00000000E+00
  0.00000000E+00  0.00000000E+00  0.00000000E+00
  0.00000000E+00  0.00000000E+00  0.00000000E+00
