title                                   
    1.000000000000000     
    10.2953638440211908    0.0426140858207145    0.0104307760586448
     0.0428650324416035   10.4340777813877672    0.0218908085783069
     0.0072000915111590    0.0146435680730002    6.8196776619205925
   Hf   Mo   Ta   Zr
    14     4    11     7
Direct
  0.0114555167082520  0.3408930489759437 -0.0080547045545989
  0.1643283687230761  0.8339547923200706  0.7581701341055491
  0.6741952734786947 -0.0228715886515497  0.4947024831417640
  0.6744877728013869  0.3449697010391300  0.0280511195956279
  0.5189857268933656  0.1806474939307127  0.2778601076298833
  0.1503994014853363  0.1398037587292178  0.7373693503335660
  0.3240269599813910  0.3434246852642198  0.5123286910978521
  0.6676716781309429  0.6716687772092980  0.4904519324320009
  0.3262352668092434  0.3338994447888195 -0.0113582751972552
  0.5228685859204820  0.1861207436376019  0.7272557548055796
  0.1670720727714242  0.8290000547805706  0.2430420348891162
  0.6740535351072645 -0.0125039113369026  0.0092560595498263
  0.1668199005632818  0.5224406130071881  0.2317517742338701
  0.1413052802802104  0.1474284084764137  0.2644601703052402
  0.3363467930428380  0.6566281835788772 -0.0033938849527238
  0.8352624028131296  0.8249657149661342  0.7553860431385873
  0.1642007051149711  0.5191803009396193  0.7611251347780770
  0.8364874716730146  0.8262177091189452  0.2469036028259964
  0.5076175840914465  0.5054107284801362  0.7670298380843648
 -0.0126101297839890  0.6732983791537802 -0.0079504696564113
  0.4915042590448093  0.5095789982838710  0.2331865323906171
 -0.0249185280680470 -0.0189929235250353  0.0075118601820170
  0.8394606176622157  0.1626716130342414  0.2560097116996356
 -0.0261450487683842 -0.0276082127788419  0.4960365894648119
  0.8468757910997001  0.5120462731769411  0.2475201281325822
  0.6780999321042083  0.3561914833955234  0.4665116461868006
 -0.0059370351057459  0.6726336731791983  0.5067624151946013
  0.4892576342997833  0.8131687250112153  0.2256654628040943
  0.6751740303160944  0.6719510302205116  0.0083282424913169
  0.0119573851509746  0.3496453457183198  0.5058839654456139
  0.3503454464773928  0.0001117714251322  0.4880765888455603
  0.8340985062442805  0.1666712330040461  0.7437378848310767
  0.3445801214415841  0.0186066755351237  0.0105040168648743
  0.3329794730543660  0.6506286736578516  0.5091342382090648
  0.4863390391255870  0.8159910125717117  0.7753004567697072
  0.8251182093154182  0.5021275896819649  0.7454433639017158
 
  0.00000000E+00  0.00000000E+00  0.00000000E+00
  0.00000000E+00  0.00000000E+00  0.00000000E+00
  0.00000000E+00  0.00000000E+00  0.00000000E+00
  0.00000000E+00  0.00000000E+00  0.00000000E+00
  0.00000000E+00  0.00000000E+00  0.00000000E+00
  0.00000000E+00  0.00000000E+00  0.00000000E+00
  0.00000000E+00  0.00000000E+00  0.00000000E+00
  0.00000000E+00  0.00000000E+00  0.00000000E+00
  0.00000000E+00  0.00000000E+00  0.00000000E+00
  0.00000000E+00  0.00000000E+00  0.00000000E+00
  0.00000000E+00  0.00000000E+00  0.00000000E+00
  0.00000000E+00  0.00000000E+00  0.00000000E+00
  0.00000000E+00  0.00000000E+00  0.00000000E+00
  0.00000000E+00  0.00000000E+00  0.00000000E+00
  0.00000000E+00  0.00000000E+00  0.00000000E+00
  0.00000000E+00  0.00000000E+00  0.00000000E+00
  0.00000000E+00  0.00000000E+00  0.00000000E+00
  0.00000000E+00  0.00000000E+00  0.00000000E+00
  0.00000000E+00  0.00000000E+00  0.00000000E+00
  0.00000000E+00  0.00000000E+00  0.00000000E+00
  0.00000000E+00  0.00000000E+00  0.00000000E+00
  0.00000000E+00  0.00000000E+00  0.00000000E+00
  0.00000000E+00  0.00000000E+00  0.00000000E+00
  0.00000000E+00  0.00000000E+00  0.00000000E+00
  0.00000000E+00  0.00000000E+00  0.00000000E+00
  0.00000000E+00  0.00000000E+00  0.00000000E+00
  0.00000000E+00  0.00000000E+00  0.00000000E+00
  0.00000000E+00  0.00000000E+00  0.00000000E+00
  0.00000000E+00  0.00000000E+00  0.00000000E+00
  0.00000000E+00  0.00000000E+00  0.00000000E+00
  0.00000000E+00  0.00000000E+00  0.00000000E+00
  0.00000000E+00  0.00000000E+00  0.00000000E+00
  0.00000000E+00  0.00000000E+00  0.00000000E+00
  0.00000000E+00  0.00000000E+00  0.00000000E+00
  0.00000000E+00  0.00000000E+00  0.00000000E+00
  0.00000000E+00  0.00000000E+00  0.00000000E+00
