title                                   
    1.000000000000000     
     9.8992039587519738    0.0054334977362695    0.0173540441730875
     0.0054226983523446    9.8920823283570591   -0.0057635278691862
     0.0113815065140024   -0.0037731529498029    6.6479429110929331
   Hf   Nb   W    Zr
    10     4    19     3
Direct
  0.1662313278878345  0.1590151814523728  0.7437885846707383
  0.5059044492223408  0.1686800675211637  0.7498711870803778
  0.6688155750238477  0.0006128898589249  0.0193807312405512
  0.5025993238729010  0.8274856891457640  0.7474853994558819
  0.8280003438987165  0.1733498314226138  0.7368506912846374
  0.1640808312270835  0.1583880354957294  0.2600513120498402
 -0.0127041816779935 -0.0049568179328437  0.0084625298523336
  0.3318912028518882  0.3421181521502101  0.4882361691184017
  0.5075273691039953  0.5031014043446723  0.7560124943255059
  0.1690624510566934  0.8356551439152238  0.2549165943961202
  0.3416303856081016 -0.0050911382184934  0.4946814373504018
  0.5069360077676478  0.5046127844862137  0.2400039888320108
  0.3291956750274113  0.6623112554871464  0.4976212847902517
  0.3308942963814883  0.3407640883687946  0.0082939077227664
  0.6721676748668464  0.3356564411287757  0.0121756275435864
  0.8275190962177048  0.4991138575114942  0.7393952287708588
  0.6718408550687804  0.6628258867768539  0.4876768581923583
  0.1732158806379656  0.8328444574030235  0.7449202019026724
  0.3271353072615317  0.6662467119930938 -0.0018767244152024
  0.6641099423104231  0.0009534057768888  0.4756771671444160
  0.1686869214882852  0.5042999203152252  0.7478262276042166
  0.6702715472041111  0.3365680198001018  0.4862807014803934
  0.1657312366820887  0.5079056974022046  0.2539926228870298
  0.5016479171781458  0.1672830099010852  0.2467950639526452
 -0.0013407639869036  0.3447391788014458  0.4990573072820747
  0.8281882876127108  0.5008682306998902  0.2590233022229977
  0.4973236207695536  0.8291871808723152  0.2467227162174836
  0.8311486269811811  0.1731292710946555  0.2666740841170119
  0.8300122596135738  0.8267064599937580  0.2672013382959104
  0.6711582766853602  0.6642231186210836  0.0121767905201661
  0.0014877194528800  0.6608571444941151  0.5036253410924422
 -0.0058164831018919 -0.0070479819230912  0.4975560547374149
  0.3424266781101929 -0.0056772351488449  0.0075173785248458
  0.8261936164655814  0.8276150360497435  0.7402832494660750
 -0.0005711282416715  0.6628433121556803 -0.0022284769807362
 -0.0026021465284067  0.3428123087830094  0.0038716272715217
 
  0.00000000E+00  0.00000000E+00  0.00000000E+00
  0.00000000E+00  0.00000000E+00  0.00000000E+00
  0.00000000E+00  0.00000000E+00  0.00000000E+00
  0.00000000E+00  0.00000000E+00  0.00000000E+00
  0.00000000E+00  0.00000000E+00  0.00000000E+00
  0.00000000E+00  0.00000000E+00  0.00000000E+00
  0.00000000E+00  0.00000000E+00  0.00000000E+00
  0.00000000E+00  0.00000000E+00  0.00000000E+00
  0.00000000E+00  0.00000000E+00  0.00000000E+00
  0.00000000E+00  0.00000000E+00  0.00000000E+00
  0.00000000E+00  0.00000000E+00  0.00000000E+00
  0.00000000E+00  0.00000000E+00  0.00000000E+00
  0.00000000E+00  0.00000000E+00  0.00000000E+00
  0.00000000E+00  0.00000000E+00  0.00000000E+00
  0.00000000E+00  0.00000000E+00  0.00000000E+00
  0.00000000E+00  0.00000000E+00  0.00000000E+00
  0.00000000E+00  0.00000000E+00  0.00000000E+00
  0.00000000E+00  0.00000000E+00  0.00000000E+00
  0.00000000E+00  0.00000000E+00  0.00000000E+00
  0.00000000E+00  0.00000000E+00  0.00000000E+00
  0.00000000E+00  0.00000000E+00  0.00000000E+00
  0.00000000E+00  0.00000000E+00  0.00000000E+00
  0.00000000E+00  0.00000000E+00  0.00000000E+00
  0.00000000E+00  0.00000000E+00  0.00000000E+00
  0.00000000E+00  0.00000000E+00  0.00000000E+00
  0.00000000E+00  0.00000000E+00  0.00000000E+00
  0.00000000E+00  0.00000000E+00  0.00000000E+00
  0.00000000E+00  0.00000000E+00  0.00000000E+00
  0.00000000E+00  0.00000000E+00  0.00000000E+00
  0.00000000E+00  0.00000000E+00  0.00000000E+00
  0.00000000E+00  0.00000000E+00  0.00000000E+00
  0.00000000E+00  0.00000000E+00  0.00000000E+00
  0.00000000E+00  0.00000000E+00  0.00000000E+00
  0.00000000E+00  0.00000000E+00  0.00000000E+00
  0.00000000E+00  0.00000000E+00  0.00000000E+00
  0.00000000E+00  0.00000000E+00  0.00000000E+00
