title                                   
    1.000000000000000     
     9.7237969325068541   -0.0380419210964307    0.0065155385725681
    -0.0376578870248135    9.6468661355583389    0.0473623494120523
     0.0042537465096045    0.0314674995517266    6.4693544048409066
   Hf   Mo   Nb   V    W 
     7     8     7     7     7
Direct
  0.1698370626228621  0.5034866428998132  0.7472012048271515
 -0.0068565087129487  0.6702227975115388  0.0010020489270689
  0.6684395591566490 -0.0052565566290878 -0.0070637499469788
  0.6726739457446869  0.3301665115222769 -0.0063719936681409
  0.4972106010536105  0.4986963117046685  0.7476105716029712
  0.1735271716788722  0.8319595767388370  0.2649580566784449
  0.4967487457514410  0.1578164784373524  0.2640908045247822
  0.4977002426389054  0.5010858939033478  0.2485485438723642
  0.8292779809938780  0.8334774672528659  0.2588365995315961
  0.3265823088361072  0.3317180442817300  0.0039922483292474
 -0.0080746808588192  0.6664647821063633  0.5010051622245297
  0.3324771146695524 -0.0020601550038726  0.5139690908081922
  0.8383076232916256  0.1703058373393362  0.7445010899017465
  0.1713353970364936  0.8389745720262027  0.7505902155113756
  0.8300749025233788  0.8309260405707749  0.7432117077169547
  0.1665616671365600  0.1721220730306041  0.2523438384220358
  0.3303148234632748  0.3332204270182336  0.4949656396853601
 -0.0049904932452171  0.0061030728812015  0.5129184183732489
  0.3315772062506088  0.0003576453616764 -0.0109584330387784
  0.4984189118624705  0.8263969793197268  0.7410680120780490
 -0.0052029125890746  0.0047927664080602 -0.0008221910770915
  0.6680237604651247  0.6672643380231800  0.4914356391917817
  0.1667768363171208  0.1778485151546371  0.7547226318020812
  0.8381667205727390  0.4988364100710046  0.7363280540629034
  0.6757029788068524 -0.0075557644681316  0.5047717037142418
  0.4886995086526711  0.1635221982526539  0.7315125300365714
  0.3470650733480218  0.6678852491506615  0.4836245814148150
  0.4915684381823279  0.8257603581545943  0.2516219819130288
  0.1688178180627624  0.5003563725347049  0.2493586647575315
  0.8361769466053686  0.1685620222279770  0.2595254936539564
 -0.0016272542144223  0.3350457617002772  0.4999205823603829
  0.6752522651349002  0.3303551252537694  0.4985097413608754
  0.8352174079742098  0.4982576314557176  0.2553712105887395
 -0.0055548775737149  0.3370729845116956  0.0030728066085649
  0.3378131845313613  0.6694741882848718  0.0104767445356985
  0.6719605238297565  0.6663374010107387  0.0041507487146995
 
  0.00000000E+00  0.00000000E+00  0.00000000E+00
  0.00000000E+00  0.00000000E+00  0.00000000E+00
  0.00000000E+00  0.00000000E+00  0.00000000E+00
  0.00000000E+00  0.00000000E+00  0.00000000E+00
  0.00000000E+00  0.00000000E+00  0.00000000E+00
  0.00000000E+00  0.00000000E+00  0.00000000E+00
  0.00000000E+00  0.00000000E+00  0.00000000E+00
  0.00000000E+00  0.00000000E+00  0.00000000E+00
  0.00000000E+00  0.00000000E+00  0.00000000E+00
  0.00000000E+00  0.00000000E+00  0.00000000E+00
  0.00000000E+00  0.00000000E+00  0.00000000E+00
  0.00000000E+00  0.00000000E+00  0.00000000E+00
  0.00000000E+00  0.00000000E+00  0.00000000E+00
  0.00000000E+00  0.00000000E+00  0.00000000E+00
  0.00000000E+00  0.00000000E+00  0.00000000E+00
  0.00000000E+00  0.00000000E+00  0.00000000E+00
  0.00000000E+00  0.00000000E+00  0.00000000E+00
  0.00000000E+00  0.00000000E+00  0.00000000E+00
  0.00000000E+00  0.00000000E+00  0.00000000E+00
  0.00000000E+00  0.00000000E+00  0.00000000E+00
  0.00000000E+00  0.00000000E+00  0.00000000E+00
  0.00000000E+00  0.00000000E+00  0.00000000E+00
  0.00000000E+00  0.00000000E+00  0.00000000E+00
  0.00000000E+00  0.00000000E+00  0.00000000E+00
  0.00000000E+00  0.00000000E+00  0.00000000E+00
  0.00000000E+00  0.00000000E+00  0.00000000E+00
  0.00000000E+00  0.00000000E+00  0.00000000E+00
  0.00000000E+00  0.00000000E+00  0.00000000E+00
  0.00000000E+00  0.00000000E+00  0.00000000E+00
  0.00000000E+00  0.00000000E+00  0.00000000E+00
  0.00000000E+00  0.00000000E+00  0.00000000E+00
  0.00000000E+00  0.00000000E+00  0.00000000E+00
  0.00000000E+00  0.00000000E+00  0.00000000E+00
  0.00000000E+00  0.00000000E+00  0.00000000E+00
  0.00000000E+00  0.00000000E+00  0.00000000E+00
  0.00000000E+00  0.00000000E+00  0.00000000E+00
