title                                   
    1.000000000000000     
    10.2186896624027472    0.0097807999693031   -0.0180296660207187
     0.0095541019607091   10.1396915927547866   -0.0040561362666270
    -0.0120169850389864   -0.0027135841602526    6.8652876117660462
   Hf   Nb   Ti   W    Zr
     2    12     1     6    15
Direct
  0.6684877383342105  0.6677107232798382  0.0014404390855920
  0.3302308155275921  0.6635583270598340  0.0101705000422859
  0.3262505764923800  0.0097304915179050 -0.0056255754344676
  0.3284295374149059  0.3314625829310780  0.5069926498424110
  0.6794296627057834  0.6640028698757430  0.4894356690554011
  0.3173721444375953  0.6575196069948864  0.4798465296772546
  0.8333919835293765  0.1596736561124772  0.2607213106790270
  0.8445266700428283  0.5192343597334266  0.7352513124261136
  0.1753458150526202  0.8467806912152462  0.2670431392554567
  0.1813047295044148  0.1682148113127508  0.2527827817041743
  0.4819872889892812  0.4918903335802476  0.7460064726373143
  0.8569645020627826  0.1519745535019732  0.7433826853104172
  0.8158630327130868  0.5028460368455638  0.2606721675458740
  0.0018583804223681  0.0055381136715454  0.4893658176002108
 -0.0008281487055734  0.6627870956627436  0.4581923125847083
  0.8330561082104683  0.8310485921136415  0.2683134879144804
  0.3249783329326844  0.0168758325758042  0.5098837452186045
  0.1810955852644246  0.4891306469456664  0.2491442907695737
  0.3273411792784034  0.3325637684697301 -0.0074422643319926
  0.1763580576653508  0.1676232493433976  0.7505740470496141
  0.4790124384583325  0.1641614222021390  0.7616479341875427
  0.0009388866886652  0.3318755177831154  0.0058093156424309
  0.0014648462102496  0.3323374550957007  0.4890555663230391
  0.1640677174776069  0.5005385919865792  0.7440915862223492
  0.4909866391200405  0.8374318182597607  0.2720868337601888
  0.6746198396608433 -0.0034925896854701  0.0013505680287601
  0.1660487125030144  0.8394407120910503  0.7328287142387203
  0.4987324559179458  0.4929831233434548  0.2562809863743580
  0.6723392374529343  0.0075128010069106  0.5110659968829390
  0.6721980645141262  0.3296387791064523 -0.0177303526885276
  0.8471091548334054  0.8233880863143576  0.7315146762806394
 -0.0006664567690920  0.6651974876928840  0.0312910005094541
  0.4905444466521036  0.1714686910500686  0.2458477576885302
  0.0031895609442293  0.0017222952749924  0.0111106694435505
  0.4872456589238690  0.8380175203968535  0.7290418192424084
  0.6687248055367409  0.3276119453376511  0.5285554092315653
 
  0.00000000E+00  0.00000000E+00  0.00000000E+00
  0.00000000E+00  0.00000000E+00  0.00000000E+00
  0.00000000E+00  0.00000000E+00  0.00000000E+00
  0.00000000E+00  0.00000000E+00  0.00000000E+00
  0.00000000E+00  0.00000000E+00  0.00000000E+00
  0.00000000E+00  0.00000000E+00  0.00000000E+00
  0.00000000E+00  0.00000000E+00  0.00000000E+00
  0.00000000E+00  0.00000000E+00  0.00000000E+00
  0.00000000E+00  0.00000000E+00  0.00000000E+00
  0.00000000E+00  0.00000000E+00  0.00000000E+00
  0.00000000E+00  0.00000000E+00  0.00000000E+00
  0.00000000E+00  0.00000000E+00  0.00000000E+00
  0.00000000E+00  0.00000000E+00  0.00000000E+00
  0.00000000E+00  0.00000000E+00  0.00000000E+00
  0.00000000E+00  0.00000000E+00  0.00000000E+00
  0.00000000E+00  0.00000000E+00  0.00000000E+00
  0.00000000E+00  0.00000000E+00  0.00000000E+00
  0.00000000E+00  0.00000000E+00  0.00000000E+00
  0.00000000E+00  0.00000000E+00  0.00000000E+00
  0.00000000E+00  0.00000000E+00  0.00000000E+00
  0.00000000E+00  0.00000000E+00  0.00000000E+00
  0.00000000E+00  0.00000000E+00  0.00000000E+00
  0.00000000E+00  0.00000000E+00  0.00000000E+00
  0.00000000E+00  0.00000000E+00  0.00000000E+00
  0.00000000E+00  0.00000000E+00  0.00000000E+00
  0.00000000E+00  0.00000000E+00  0.00000000E+00
  0.00000000E+00  0.00000000E+00  0.00000000E+00
  0.00000000E+00  0.00000000E+00  0.00000000E+00
  0.00000000E+00  0.00000000E+00  0.00000000E+00
  0.00000000E+00  0.00000000E+00  0.00000000E+00
  0.00000000E+00  0.00000000E+00  0.00000000E+00
  0.00000000E+00  0.00000000E+00  0.00000000E+00
  0.00000000E+00  0.00000000E+00  0.00000000E+00
  0.00000000E+00  0.00000000E+00  0.00000000E+00
  0.00000000E+00  0.00000000E+00  0.00000000E+00
  0.00000000E+00  0.00000000E+00  0.00000000E+00
