title                                   
    1.000000000000000     
     9.7083185580500544    0.0223808464136632    0.0108876622883036
     0.0223794718711451    9.6983064159599639    0.0127244795990186
     0.0072668363766176    0.0084906469593638    6.4641545530605038
   Hf   Mo   W 
     8    18    10
Direct
  0.0053548393979972  0.6676960465948161 -0.0066990002281616
  0.0050211086236977  0.6682938845291649  0.5063721170200489
  0.8303295626322194  0.4896612513731520  0.2552857249130761
  0.5001190689627416  0.1664544642742695  0.2494970596998532
  0.4970696649955751  0.4957333153947834  0.2514183476534372
  0.8252498598529169  0.8456065719139182  0.2487751490622687
  0.0068932938073420  0.0035298118847528  0.5065458796171118
  0.6634515893794563  0.6684129244893420 -0.0139698517022142
  0.1720826701517820  0.4946466576611122  0.2507261803529280
  0.6676284833153773  0.3290261396491311  0.5084105940825452
  0.0029407784314631  0.3306197285589731 -0.0007368187576179
  0.1694194099476226  0.1691714979074925  0.7574638106917914
  0.4973315480757850  0.8363760626863088  0.2509094243563281
  0.6630753138628710  0.0019566383357238 -0.0080321104750268
  0.0023732004922178  0.3293638823800141  0.5059275640421279
  0.5011402894572300  0.1645486215835900  0.7494893493883632
  0.1694489482914874  0.1682418506978846  0.2473352617195924
  0.3281010404391579  0.3310802873862893 -0.0037660808847034
  0.6650981203421804  0.0026617240004035  0.5069537733232153
  0.8265724307546012  0.8440232496327580  0.7496709152252284
  0.3315559853197423  0.6673935946986918  0.5004467183502099
  0.8322442732891699  0.4911326818260247  0.7455871797555500
  0.1748652093137551  0.8364571229339889  0.2473198862711188
  0.0029208800310002  0.0054686366879639  0.0008499163923305
  0.1780128252360526  0.8355463805530079  0.7536254221003920
  0.3314395867183333  0.6689880811211436 -0.0036895394712325
  0.8327902612697335  0.1700257257122520  0.7539351676155348
  0.4954151312895536  0.4968306076213914  0.7429736452839713
  0.8317659971610905  0.1688472524132756  0.2477329243841825
  0.4962591677517258  0.8362131665866807  0.7434077474245790
  0.3274171201575388  0.3309888958816822  0.5077068747296007
  0.6616696430300891  0.6693520848463820  0.5103886694112442
  0.3317645779757239 -0.0033916682703990  0.5022094999142582
  0.1729324102424288  0.4925991402892966  0.7515283749376754
  0.3313633707229970 -0.0027657636098826 -0.0017937396806673
  0.6688823392773431  0.3292094497746197 -0.0138060365189399
 
  0.00000000E+00  0.00000000E+00  0.00000000E+00
  0.00000000E+00  0.00000000E+00  0.00000000E+00
  0.00000000E+00  0.00000000E+00  0.00000000E+00
  0.00000000E+00  0.00000000E+00  0.00000000E+00
  0.00000000E+00  0.00000000E+00  0.00000000E+00
  0.00000000E+00  0.00000000E+00  0.00000000E+00
  0.00000000E+00  0.00000000E+00  0.00000000E+00
  0.00000000E+00  0.00000000E+00  0.00000000E+00
  0.00000000E+00  0.00000000E+00  0.00000000E+00
  0.00000000E+00  0.00000000E+00  0.00000000E+00
  0.00000000E+00  0.00000000E+00  0.00000000E+00
  0.00000000E+00  0.00000000E+00  0.00000000E+00
  0.00000000E+00  0.00000000E+00  0.00000000E+00
  0.00000000E+00  0.00000000E+00  0.00000000E+00
  0.00000000E+00  0.00000000E+00  0.00000000E+00
  0.00000000E+00  0.00000000E+00  0.00000000E+00
  0.00000000E+00  0.00000000E+00  0.00000000E+00
  0.00000000E+00  0.00000000E+00  0.00000000E+00
  0.00000000E+00  0.00000000E+00  0.00000000E+00
  0.00000000E+00  0.00000000E+00  0.00000000E+00
  0.00000000E+00  0.00000000E+00  0.00000000E+00
  0.00000000E+00  0.00000000E+00  0.00000000E+00
  0.00000000E+00  0.00000000E+00  0.00000000E+00
  0.00000000E+00  0.00000000E+00  0.00000000E+00
  0.00000000E+00  0.00000000E+00  0.00000000E+00
  0.00000000E+00  0.00000000E+00  0.00000000E+00
  0.00000000E+00  0.00000000E+00  0.00000000E+00
  0.00000000E+00  0.00000000E+00  0.00000000E+00
  0.00000000E+00  0.00000000E+00  0.00000000E+00
  0.00000000E+00  0.00000000E+00  0.00000000E+00
  0.00000000E+00  0.00000000E+00  0.00000000E+00
  0.00000000E+00  0.00000000E+00  0.00000000E+00
  0.00000000E+00  0.00000000E+00  0.00000000E+00
  0.00000000E+00  0.00000000E+00  0.00000000E+00
  0.00000000E+00  0.00000000E+00  0.00000000E+00
  0.00000000E+00  0.00000000E+00  0.00000000E+00
