title                                   
    1.000000000000000     
     9.1318372051895764   -0.0060058989344654    0.0045247116577132
    -0.0059678475293538    9.1072413988364325   -0.0186436098063476
     0.0030249961757709   -0.0124118400437186    6.0900776556916600
   Cr   Mo   Ti   V 
    11    14     4     7
Direct
  0.0061069197868520  0.0022032569145591  0.5003999802908852
  0.3300625208404545  0.0007755021561567 -0.0051146982887883
  0.3227833620460491  0.3262534090981085  0.5020796112420423
  0.1686929720904368  0.1674975272633313  0.2570285339588832
  0.1677897209329494  0.1654648262521017  0.7472784421823782
  0.6690584585824750 -0.0008030858186565 -0.0007355611448026
  0.8426127408010206  0.5018763507115042  0.7560730291956163
  0.0030192860136182  0.3363032419798675 -0.0032325734658872
 -0.0012566440890687  0.6652150448507235  0.5031373750016358
  0.6726816876632687  0.6703915080911400 -0.0020065242500287
  0.1610424089480544  0.4962258962996468  0.7505121575605369
  0.8377064585333922  0.8333595519946406  0.7530470630416922
  0.8406005217487407  0.5052133120568721  0.2445406883034648
  0.6717420465769304  0.3333669599585410 -0.0078389029378491
  0.0043316742056003  0.3332598990457247  0.5070224323191718
  0.1616186577325450  0.8358615158499454  0.2541059019180361
  0.6694365780270655  0.0008538599260655  0.5026003077099942
  0.8383920901950958  0.1640704212419420  0.2480108261523098
  0.5018326926607158  0.8377018862346094  0.2449906068783224
  0.4968916311988742  0.4978317349475596  0.7507802823804075
  0.3270487993723415  0.6655713500101795  0.5018241147501363
  0.0043443546563209  0.0039338314793890 -0.0028775008833901
  0.4981266354898363  0.8388623329482860  0.7555101204831403
  0.3264365358316780  0.6659716819297337 -0.0033751191816277
  0.3215685087475522  0.3275965146702530 -0.0067556340991111
  0.4940380600671592  0.1652792280782408  0.2444983133078475
  0.4928572432218568  0.4971912776113689  0.2451157360277474
  0.6720193765835729  0.6646333888311030  0.5046752514294879
  0.6725906312412625  0.3372469193180090  0.5058273018033808
 -0.0001561890475466  0.6620808229650245 -0.0050512393363143
  0.1653221106396634  0.8344511177184106  0.7471155872352621
  0.1646377590804307  0.4952732845083379  0.2515693596787620
  0.8356814993899193  0.8351340143156916  0.2470706505885891
  0.3252283447841993  0.0041849417262341  0.5033023297750001
  0.4946718111081688  0.1627830270887514  0.7541863190897521
  0.8404387343385153  0.1668836477466044  0.7546854312833177
 
  0.00000000E+00  0.00000000E+00  0.00000000E+00
  0.00000000E+00  0.00000000E+00  0.00000000E+00
  0.00000000E+00  0.00000000E+00  0.00000000E+00
  0.00000000E+00  0.00000000E+00  0.00000000E+00
  0.00000000E+00  0.00000000E+00  0.00000000E+00
  0.00000000E+00  0.00000000E+00  0.00000000E+00
  0.00000000E+00  0.00000000E+00  0.00000000E+00
  0.00000000E+00  0.00000000E+00  0.00000000E+00
  0.00000000E+00  0.00000000E+00  0.00000000E+00
  0.00000000E+00  0.00000000E+00  0.00000000E+00
  0.00000000E+00  0.00000000E+00  0.00000000E+00
  0.00000000E+00  0.00000000E+00  0.00000000E+00
  0.00000000E+00  0.00000000E+00  0.00000000E+00
  0.00000000E+00  0.00000000E+00  0.00000000E+00
  0.00000000E+00  0.00000000E+00  0.00000000E+00
  0.00000000E+00  0.00000000E+00  0.00000000E+00
  0.00000000E+00  0.00000000E+00  0.00000000E+00
  0.00000000E+00  0.00000000E+00  0.00000000E+00
  0.00000000E+00  0.00000000E+00  0.00000000E+00
  0.00000000E+00  0.00000000E+00  0.00000000E+00
  0.00000000E+00  0.00000000E+00  0.00000000E+00
  0.00000000E+00  0.00000000E+00  0.00000000E+00
  0.00000000E+00  0.00000000E+00  0.00000000E+00
  0.00000000E+00  0.00000000E+00  0.00000000E+00
  0.00000000E+00  0.00000000E+00  0.00000000E+00
  0.00000000E+00  0.00000000E+00  0.00000000E+00
  0.00000000E+00  0.00000000E+00  0.00000000E+00
  0.00000000E+00  0.00000000E+00  0.00000000E+00
  0.00000000E+00  0.00000000E+00  0.00000000E+00
  0.00000000E+00  0.00000000E+00  0.00000000E+00
  0.00000000E+00  0.00000000E+00  0.00000000E+00
  0.00000000E+00  0.00000000E+00  0.00000000E+00
  0.00000000E+00  0.00000000E+00  0.00000000E+00
  0.00000000E+00  0.00000000E+00  0.00000000E+00
  0.00000000E+00  0.00000000E+00  0.00000000E+00
  0.00000000E+00  0.00000000E+00  0.00000000E+00
