title                                   
    1.000000000000000     
     9.8907269271573224    0.0734448748689420   -0.0857822732287913
     0.0727569121096523    9.8552540405901308    0.0311049767361192
    -0.0572646848908606    0.0208487256450599    6.5635105751631322
   Hf   Mo   Ta   Ti   V 
    15     6     1     2    12
Direct
  0.3321345400962079  0.6675881201689943 -0.0098094404934065
  0.1552986387913936  0.1741295557186174  0.2618695802787416
  0.8435854518251936  0.1638290838304205  0.7588319092576795
  0.6617452706022089  0.6548431142494525  0.0050137067813744
  0.5021292062784318  0.1612933292103310  0.7264067064457020
  0.8451636994418897  0.8348198846322146  0.7534070099354433
  0.8623316402795885  0.8267727507479025  0.2555583739538656
  0.6547941516796978 -0.0097781820924377  0.0383339283413668
  0.3233025925650457 -0.0068936319134358 -0.0045028399680158
  0.1547070014162918  0.5018539366265062  0.2543915588615050
  0.6624513534940445  0.3518886218803375  0.0078242057354942
  0.3215220067509700  0.3416802516057414 -0.0387082967518613
  0.5124846242738761  0.8482320900607594  0.7166491815992061
  0.6679526046645949  0.6488491316279539  0.4868188004386906
  0.4867729886324687  0.1755261707060333  0.2714140038830519
  0.1601279350793300  0.8353666220439935  0.2502784567940555
  0.3185232510522416 -0.0118075342369572  0.4928246901041949
  0.6799203916308432  0.0026971736312044  0.4767557056114156
  0.4912338226399239  0.8281145703595150  0.2590422228612009
 -0.0066887318196245  0.3418882995905757  0.5166207062166965
 -0.0121168753931074  0.3432431003824581  0.0020950022817145
  0.6720798127370198  0.3487737132434680  0.5023780122766277
  0.8413850776836741  0.1713163403278225  0.2725529720107370
  0.3312922652611716  0.6718868027688633  0.4867037203506319
  0.8573047951307416  0.4945875526297711  0.7541987702582676
  0.1513056543047394  0.1579682921897384  0.7403891052424287
  0.1499060658502884  0.5126384983916333  0.7350252312384296
  0.8554376626012443  0.4887276591179972  0.2566521147030950
  0.4665678401972079  0.4822460276422603  0.2812381466073623
  0.3281023713886471  0.3512363420059454  0.5259831398316953
  0.0133489711564117  0.6622852997152399  0.5303463615355194
  0.4869030880057768  0.4923148820990457  0.7080522097013702
  0.1555206788232389  0.8376484580262159  0.7362415647977444
  0.0316836813903375 -0.0097818791975877 -0.0102938157129987
  0.0212948497260509 -0.0011718226925488  0.5263901732935019
  0.0204916217619418  0.6651873749019568 -0.0269728783025265
 
  0.00000000E+00  0.00000000E+00  0.00000000E+00
  0.00000000E+00  0.00000000E+00  0.00000000E+00
  0.00000000E+00  0.00000000E+00  0.00000000E+00
  0.00000000E+00  0.00000000E+00  0.00000000E+00
  0.00000000E+00  0.00000000E+00  0.00000000E+00
  0.00000000E+00  0.00000000E+00  0.00000000E+00
  0.00000000E+00  0.00000000E+00  0.00000000E+00
  0.00000000E+00  0.00000000E+00  0.00000000E+00
  0.00000000E+00  0.00000000E+00  0.00000000E+00
  0.00000000E+00  0.00000000E+00  0.00000000E+00
  0.00000000E+00  0.00000000E+00  0.00000000E+00
  0.00000000E+00  0.00000000E+00  0.00000000E+00
  0.00000000E+00  0.00000000E+00  0.00000000E+00
  0.00000000E+00  0.00000000E+00  0.00000000E+00
  0.00000000E+00  0.00000000E+00  0.00000000E+00
  0.00000000E+00  0.00000000E+00  0.00000000E+00
  0.00000000E+00  0.00000000E+00  0.00000000E+00
  0.00000000E+00  0.00000000E+00  0.00000000E+00
  0.00000000E+00  0.00000000E+00  0.00000000E+00
  0.00000000E+00  0.00000000E+00  0.00000000E+00
  0.00000000E+00  0.00000000E+00  0.00000000E+00
  0.00000000E+00  0.00000000E+00  0.00000000E+00
  0.00000000E+00  0.00000000E+00  0.00000000E+00
  0.00000000E+00  0.00000000E+00  0.00000000E+00
  0.00000000E+00  0.00000000E+00  0.00000000E+00
  0.00000000E+00  0.00000000E+00  0.00000000E+00
  0.00000000E+00  0.00000000E+00  0.00000000E+00
  0.00000000E+00  0.00000000E+00  0.00000000E+00
  0.00000000E+00  0.00000000E+00  0.00000000E+00
  0.00000000E+00  0.00000000E+00  0.00000000E+00
  0.00000000E+00  0.00000000E+00  0.00000000E+00
  0.00000000E+00  0.00000000E+00  0.00000000E+00
  0.00000000E+00  0.00000000E+00  0.00000000E+00
  0.00000000E+00  0.00000000E+00  0.00000000E+00
  0.00000000E+00  0.00000000E+00  0.00000000E+00
  0.00000000E+00  0.00000000E+00  0.00000000E+00
