title                                   
    1.000000000000000     
     9.5124264030347909   -0.0192503513537887   -0.0070712850827354
    -0.0192182437026383    9.5059124214254780    0.0275143396247087
    -0.0047163780638194    0.0182974366416204    6.3467282598685850
   Mo   Nb   Ti   V    W 
     8     7     7     7     7
Direct
  0.3346493530249442  0.0037398863771633 -0.0011781571616583
  0.1686345273399953  0.8301920191719948  0.7457047302345707
  0.8351465420735807  0.8354120631532159  0.2514646631222487
  0.1625304647999025  0.1701875943207481  0.2510686513068165
 -0.0021684135520989 -0.0004631376380745  0.0020791295425427
  0.5047709160318127  0.1688728208279577  0.2546129710546866
 -0.0004461729942857  0.3321332538776072  0.0010628120410995
 -0.0038252543625954  0.6653013180130636  0.5005690629459616
  0.4966527054076182  0.8341318903224864  0.2523306101847079
  0.3314493854986880  0.0001106692955605  0.5025771629259841
  0.1678032288983437  0.8291842231506954  0.2475033517797386
  0.6696989673912055  0.6693325312379810 -0.0029291404464684
  0.3328314430957435  0.6633773143395920 -0.0154758288885027
 -0.0021342476457673  0.6633317980342232 -0.0060743755828560
  0.4985932999220993  0.4993974994387711  0.2548658000064958
  0.6698478339782689  0.0008695241476494  0.0074132342937172
  0.6679629284801130  0.6660112785387882  0.5037210934848783
  0.1586051378680182  0.4975775412909478  0.2597016341583450
  0.8328762945298093  0.1725261114150780  0.7537653711969616
  0.0001983793194907  0.0040015682982859  0.4983299724766436
  0.5058215382070902  0.1657109509243529  0.7495077861405715
  0.3309685108581298  0.3307748692129111 -0.0013349683145959
  0.8390027267728639  0.4897127979902797  0.2534168207631157
 -0.0019111759643933  0.3307472946251881  0.4984638649931130
  0.3338964612847632  0.6644401674544392  0.5084638545476731
  0.6718932652098378  0.3384956501636764  0.4977163496936149
  0.1617209250643672  0.4956330746880751  0.7345016646756348
  0.8342028999705462  0.1773857588958905  0.2515502727199154
  0.4988944007278298  0.8412393991184350  0.7478557551487376
  0.3303646532451366  0.3330460838942919  0.5034570998776614
  0.8357911996784624  0.4924604401510722  0.7441958124042709
  0.4998136581987402  0.4952809173391225  0.7441267769204689
  0.1636242481584131  0.1699037031141090  0.7515439435722252
  0.6662057511562564  0.3333717729898625  0.0075125729771595
  0.8341909400094303  0.8372129683128674  0.7491961460683255
  0.6718426783176404 -0.0006436164883080  0.4987134991361932
 
  0.00000000E+00  0.00000000E+00  0.00000000E+00
  0.00000000E+00  0.00000000E+00  0.00000000E+00
  0.00000000E+00  0.00000000E+00  0.00000000E+00
  0.00000000E+00  0.00000000E+00  0.00000000E+00
  0.00000000E+00  0.00000000E+00  0.00000000E+00
  0.00000000E+00  0.00000000E+00  0.00000000E+00
  0.00000000E+00  0.00000000E+00  0.00000000E+00
  0.00000000E+00  0.00000000E+00  0.00000000E+00
  0.00000000E+00  0.00000000E+00  0.00000000E+00
  0.00000000E+00  0.00000000E+00  0.00000000E+00
  0.00000000E+00  0.00000000E+00  0.00000000E+00
  0.00000000E+00  0.00000000E+00  0.00000000E+00
  0.00000000E+00  0.00000000E+00  0.00000000E+00
  0.00000000E+00  0.00000000E+00  0.00000000E+00
  0.00000000E+00  0.00000000E+00  0.00000000E+00
  0.00000000E+00  0.00000000E+00  0.00000000E+00
  0.00000000E+00  0.00000000E+00  0.00000000E+00
  0.00000000E+00  0.00000000E+00  0.00000000E+00
  0.00000000E+00  0.00000000E+00  0.00000000E+00
  0.00000000E+00  0.00000000E+00  0.00000000E+00
  0.00000000E+00  0.00000000E+00  0.00000000E+00
  0.00000000E+00  0.00000000E+00  0.00000000E+00
  0.00000000E+00  0.00000000E+00  0.00000000E+00
  0.00000000E+00  0.00000000E+00  0.00000000E+00
  0.00000000E+00  0.00000000E+00  0.00000000E+00
  0.00000000E+00  0.00000000E+00  0.00000000E+00
  0.00000000E+00  0.00000000E+00  0.00000000E+00
  0.00000000E+00  0.00000000E+00  0.00000000E+00
  0.00000000E+00  0.00000000E+00  0.00000000E+00
  0.00000000E+00  0.00000000E+00  0.00000000E+00
  0.00000000E+00  0.00000000E+00  0.00000000E+00
  0.00000000E+00  0.00000000E+00  0.00000000E+00
  0.00000000E+00  0.00000000E+00  0.00000000E+00
  0.00000000E+00  0.00000000E+00  0.00000000E+00
  0.00000000E+00  0.00000000E+00  0.00000000E+00
  0.00000000E+00  0.00000000E+00  0.00000000E+00
