title                                   
    1.000000000000000     
     9.5348720312130819    0.0036580438888146   -0.0186668845509890
     0.0035480719882307    9.5589295756017911    0.0425879006788927
    -0.0124872423922459    0.0283687881010466    6.3508473482674983
   Mo   Ta   Ti   V 
     9     9     9     9
Direct
  0.8398109520864160  0.8371554704970310  0.7420602611657218
  0.6728745930533169  0.3343619048243847  0.5009385576273205
  0.4935352693144112  0.8355281375827407  0.2487689627422564
  0.3305102294789741 -0.0013911516085736  0.5037950701731165
  0.3341287234564208 -0.0023676530887225 -0.0033132706954766
  0.1627136887246186  0.5091491030112538  0.2480628950178992
  0.8389912208307070  0.1632484795762340  0.2566865459618464
  0.0001571381516907 -0.0021015939377908 -0.0074570386799007
  0.8424289100378677  0.8332270894120983  0.2532271547097594
  0.6704139237355290  0.6736777768348776  0.4984492920933240
 -0.0033083404639153  0.6625078482409177 -0.0086391381711955
  0.8373752775374946  0.1647568778341434  0.7455470308587818
  0.5039687087997907  0.4983620589945113  0.2453249385928234
  0.4978350560404300  0.1643986086549852  0.2598515628203053
  0.3261656020719731  0.6674768612177845  0.4990763918685364
  0.5012468515997107  0.5023304785654322  0.7560550773587431
  0.3177084731426736  0.3369047750887545  0.5093479699806303
  0.3191616969204467  0.3360521512696784 -0.0048636705258599
  0.4998976713668475  0.1597788879398991  0.7469912775981461
  0.4896432467289927  0.8408931745873162  0.7514443128347130
  0.6729739135236057 -0.0081787284884964  0.0133718112682284
 -0.0002804768336424  0.3390407260004532  0.0041411286226447
  0.0059334402033008  0.3389196642409468  0.4970582830163545
  0.1644641099737567  0.8425727506383712  0.2420838242059394
  0.6857869839581635  0.3309100411754648  0.0097789838255611
  0.6768028131046423  0.6749649496304740  0.0027100772590565
  0.1685365912442867  0.1491924561039406  0.2483145357071104
  0.3236639092964041  0.6642250557968645 -0.0031054969832593
  0.8289056711372369  0.4985492139710724  0.2719453120494704
  0.8307964721627332  0.4958794561905804  0.7290367997707097
  0.1665889720438562  0.1516425826470665  0.7529262196414431
  0.1698555361290288  0.8385226497277922  0.7486032050818371
 -0.0074126545004476 -0.0025278900874975  0.4992221724085638
  0.1636287963245694  0.5134521086338932  0.7499430329087480
  0.6773010027980981 -0.0064271064451620  0.4931748031779481
 -0.0028039731799888  0.6653127847672815  0.4994411247081516
 
  0.00000000E+00  0.00000000E+00  0.00000000E+00
  0.00000000E+00  0.00000000E+00  0.00000000E+00
  0.00000000E+00  0.00000000E+00  0.00000000E+00
  0.00000000E+00  0.00000000E+00  0.00000000E+00
  0.00000000E+00  0.00000000E+00  0.00000000E+00
  0.00000000E+00  0.00000000E+00  0.00000000E+00
  0.00000000E+00  0.00000000E+00  0.00000000E+00
  0.00000000E+00  0.00000000E+00  0.00000000E+00
  0.00000000E+00  0.00000000E+00  0.00000000E+00
  0.00000000E+00  0.00000000E+00  0.00000000E+00
  0.00000000E+00  0.00000000E+00  0.00000000E+00
  0.00000000E+00  0.00000000E+00  0.00000000E+00
  0.00000000E+00  0.00000000E+00  0.00000000E+00
  0.00000000E+00  0.00000000E+00  0.00000000E+00
  0.00000000E+00  0.00000000E+00  0.00000000E+00
  0.00000000E+00  0.00000000E+00  0.00000000E+00
  0.00000000E+00  0.00000000E+00  0.00000000E+00
  0.00000000E+00  0.00000000E+00  0.00000000E+00
  0.00000000E+00  0.00000000E+00  0.00000000E+00
  0.00000000E+00  0.00000000E+00  0.00000000E+00
  0.00000000E+00  0.00000000E+00  0.00000000E+00
  0.00000000E+00  0.00000000E+00  0.00000000E+00
  0.00000000E+00  0.00000000E+00  0.00000000E+00
  0.00000000E+00  0.00000000E+00  0.00000000E+00
  0.00000000E+00  0.00000000E+00  0.00000000E+00
  0.00000000E+00  0.00000000E+00  0.00000000E+00
  0.00000000E+00  0.00000000E+00  0.00000000E+00
  0.00000000E+00  0.00000000E+00  0.00000000E+00
  0.00000000E+00  0.00000000E+00  0.00000000E+00
  0.00000000E+00  0.00000000E+00  0.00000000E+00
  0.00000000E+00  0.00000000E+00  0.00000000E+00
  0.00000000E+00  0.00000000E+00  0.00000000E+00
  0.00000000E+00  0.00000000E+00  0.00000000E+00
  0.00000000E+00  0.00000000E+00  0.00000000E+00
  0.00000000E+00  0.00000000E+00  0.00000000E+00
  0.00000000E+00  0.00000000E+00  0.00000000E+00
