title                                   
    1.000000000000000     
     9.2987251099487800    0.0041172871719017    0.0018932382027760
     0.0041178238431360    9.2971782817483604   -0.0122078242883717
     0.0012611601184250   -0.0081355320880264    6.1993229028111880
   Cr   Mo   Nb   V    W 
     2    15     1    12     6
Direct
  0.5018116730662443  0.8312984698460858  0.2503955116601449
  0.8352704614561899  0.1680272047480408  0.7522697789550373
  0.5007847540234903  0.1682286406195735  0.7524881824775660
 -0.0011250443299703  0.6645780582191098 -0.0018214483549489
  0.6674124370920584  0.3339746359695799  0.5028202399433633
  0.3363209409472402  0.6651972253054228  0.4960465403511108
  0.6677194110031608  0.0015472046012714  0.0017081691987246
  0.1696067768839145  0.4948728018405276  0.2474289048476971
 -0.0008093627522248  0.3313785916854023  0.5066183885424602
  0.8356239990148949  0.1659215945571843  0.2476338399441678
  0.6688262217653128  0.0000255009540730  0.4970272151866422
  0.3344465622056596  0.0013845433476709  0.4971139901111130
  0.3346084153093401  0.6661313832785148  0.0031721741599065
  0.1660992706361350  0.8370864654504655  0.2466252116247864
  0.8294518877319502  0.4982654402640089  0.2474841381677469
  0.6655121494878478  0.6663394275951194  0.0046944132166032
  0.4988492896836685  0.1694673742908782  0.2481394341050144
 -0.0020564696190517  0.6657589692753216  0.4976875777120325
  0.3342741400517031 -0.0002768592460460  0.0018609736283831
 -0.0027884796221838  0.3308916843725059 -0.0027546456745777
 -0.0022918107525427  0.0024183312140910  0.5006107234444938
  0.8305610598513813  0.8354862048252648  0.2479716198908245
  0.5002642296655055  0.4997221892376109  0.2509200395914177
  0.3335613717819971  0.3340658345095889  0.5007570209923954
  0.6645272956898222  0.6684256942684266  0.4961679261466309
  0.1674229785507571  0.4966356192704876  0.7521927330059692
  0.8317014315440159  0.4965434420791434  0.7526606028440138
  0.6693704706964589  0.3321205670988099 -0.0006900523195183
 -0.0015657466691026  0.0031299750330166 -0.0015074086406189
  0.3336026215883465  0.3331470121095585  0.0005724875584654
  0.8324708046175143  0.8355880682301042  0.7498134781382690
  0.5005248817104966  0.8333388033520387  0.7500867354802787
  0.1657777875448758  0.1674988478776384  0.7534391379776618
  0.1661850682202156  0.1671401958598985  0.2479284426959028
  0.1674004961253203  0.8357738519515430  0.7514746492575616
  0.5006480257995586  0.4988670061080681  0.7509632741332781
 
  0.00000000E+00  0.00000000E+00  0.00000000E+00
  0.00000000E+00  0.00000000E+00  0.00000000E+00
  0.00000000E+00  0.00000000E+00  0.00000000E+00
  0.00000000E+00  0.00000000E+00  0.00000000E+00
  0.00000000E+00  0.00000000E+00  0.00000000E+00
  0.00000000E+00  0.00000000E+00  0.00000000E+00
  0.00000000E+00  0.00000000E+00  0.00000000E+00
  0.00000000E+00  0.00000000E+00  0.00000000E+00
  0.00000000E+00  0.00000000E+00  0.00000000E+00
  0.00000000E+00  0.00000000E+00  0.00000000E+00
  0.00000000E+00  0.00000000E+00  0.00000000E+00
  0.00000000E+00  0.00000000E+00  0.00000000E+00
  0.00000000E+00  0.00000000E+00  0.00000000E+00
  0.00000000E+00  0.00000000E+00  0.00000000E+00
  0.00000000E+00  0.00000000E+00  0.00000000E+00
  0.00000000E+00  0.00000000E+00  0.00000000E+00
  0.00000000E+00  0.00000000E+00  0.00000000E+00
  0.00000000E+00  0.00000000E+00  0.00000000E+00
  0.00000000E+00  0.00000000E+00  0.00000000E+00
  0.00000000E+00  0.00000000E+00  0.00000000E+00
  0.00000000E+00  0.00000000E+00  0.00000000E+00
  0.00000000E+00  0.00000000E+00  0.00000000E+00
  0.00000000E+00  0.00000000E+00  0.00000000E+00
  0.00000000E+00  0.00000000E+00  0.00000000E+00
  0.00000000E+00  0.00000000E+00  0.00000000E+00
  0.00000000E+00  0.00000000E+00  0.00000000E+00
  0.00000000E+00  0.00000000E+00  0.00000000E+00
  0.00000000E+00  0.00000000E+00  0.00000000E+00
  0.00000000E+00  0.00000000E+00  0.00000000E+00
  0.00000000E+00  0.00000000E+00  0.00000000E+00
  0.00000000E+00  0.00000000E+00  0.00000000E+00
  0.00000000E+00  0.00000000E+00  0.00000000E+00
  0.00000000E+00  0.00000000E+00  0.00000000E+00
  0.00000000E+00  0.00000000E+00  0.00000000E+00
  0.00000000E+00  0.00000000E+00  0.00000000E+00
  0.00000000E+00  0.00000000E+00  0.00000000E+00
