title                                   
    1.000000000000000     
     9.6827981335507847   -0.0070418751280881   -0.0081436882047672
    -0.0070250592022152    9.6521916893070561   -0.0093217226028522
    -0.0054197063573045   -0.0062195325005325    6.4752746377887860
   Nb   Ti   W    Zr
     4    10    19     3
Direct
  0.6710361992367854  0.3371011309072934  0.0058014135033275
  0.3304354563866649  0.3334325706597367  0.0027295477201571
  0.8370866366515186  0.5016929786531039  0.7475016925325385
  0.8327806644330792  0.1686759474984111  0.7440424444785176
  0.5048485165272001  0.5040494019692145  0.2524879367137133
  0.3343017895847498  0.6690083354180631  0.5027464900629333
 -0.0003131407233417  0.3334124657203633  0.0049573146591285
  0.1609052951857057  0.5062615282628002  0.7569242568588276
  0.6685648816775520  0.6706615457163922 -0.0010305902143489
  0.1594345684906648  0.1590315152305261  0.2379493303421722
 -0.0022170361462762 -0.0061208794072260  0.5029844339416500
  0.1652023826185546  0.8324241639548932  0.2331237050228680
  0.5044557398654862  0.1707130612353890  0.7500580325177614
 -0.0002108897283005  0.6715378372923643  0.4976245567600890
  0.8389977172790521  0.1675129541423731  0.2564970875994184
 -0.0039166140491327  0.6666463407916458  0.0024978520933637
  0.4996185383829821  0.8309875199349372  0.7493743302455336
  0.8360128522262972  0.8315092278841025  0.7444900461899097
  0.6694246063925422 -0.0028814244835230  0.4957575942701904
  0.5029839327563307  0.5017900044320970  0.7528983031069340
  0.3346929462086722 -0.0027020140107759 -0.0026014010664278
  0.5035321333999243  0.1696315793665106  0.2505738571663088
  0.8382916367455336  0.8301479879384021  0.2519334881517768
 -0.0017829136073311  0.3327967165555871  0.4949336491354697
  0.3369862135051097  0.6668957222952527 -0.0025823584567822
  0.1606444150298346  0.1650893814234783  0.7621150604188140
  0.1634243134634838  0.5055376061755334  0.2390107223173699
  0.6665828187635137  0.3351074092827498  0.4984062478387957
 -0.0026208730825535 -0.0005010218082466 -0.0025562032467676
  0.4983004910166102  0.8245957626952551  0.2482396263192119
  0.1651589119377984  0.8280123618269458  0.7640773115573566
  0.8314023321853936  0.5004343292930777  0.2571897157342648
  0.6678222250826515  0.6689317284616638  0.4997097870630548
  0.3285675824907383  0.3369737852633168  0.5004385042917042
  0.6674830925167774 -0.0043052956791462  0.0006967674929026
  0.3320825772957289 -0.0040922648925630  0.5009994468782627
 
  0.00000000E+00  0.00000000E+00  0.00000000E+00
  0.00000000E+00  0.00000000E+00  0.00000000E+00
  0.00000000E+00  0.00000000E+00  0.00000000E+00
  0.00000000E+00  0.00000000E+00  0.00000000E+00
  0.00000000E+00  0.00000000E+00  0.00000000E+00
  0.00000000E+00  0.00000000E+00  0.00000000E+00
  0.00000000E+00  0.00000000E+00  0.00000000E+00
  0.00000000E+00  0.00000000E+00  0.00000000E+00
  0.00000000E+00  0.00000000E+00  0.00000000E+00
  0.00000000E+00  0.00000000E+00  0.00000000E+00
  0.00000000E+00  0.00000000E+00  0.00000000E+00
  0.00000000E+00  0.00000000E+00  0.00000000E+00
  0.00000000E+00  0.00000000E+00  0.00000000E+00
  0.00000000E+00  0.00000000E+00  0.00000000E+00
  0.00000000E+00  0.00000000E+00  0.00000000E+00
  0.00000000E+00  0.00000000E+00  0.00000000E+00
  0.00000000E+00  0.00000000E+00  0.00000000E+00
  0.00000000E+00  0.00000000E+00  0.00000000E+00
  0.00000000E+00  0.00000000E+00  0.00000000E+00
  0.00000000E+00  0.00000000E+00  0.00000000E+00
  0.00000000E+00  0.00000000E+00  0.00000000E+00
  0.00000000E+00  0.00000000E+00  0.00000000E+00
  0.00000000E+00  0.00000000E+00  0.00000000E+00
  0.00000000E+00  0.00000000E+00  0.00000000E+00
  0.00000000E+00  0.00000000E+00  0.00000000E+00
  0.00000000E+00  0.00000000E+00  0.00000000E+00
  0.00000000E+00  0.00000000E+00  0.00000000E+00
  0.00000000E+00  0.00000000E+00  0.00000000E+00
  0.00000000E+00  0.00000000E+00  0.00000000E+00
  0.00000000E+00  0.00000000E+00  0.00000000E+00
  0.00000000E+00  0.00000000E+00  0.00000000E+00
  0.00000000E+00  0.00000000E+00  0.00000000E+00
  0.00000000E+00  0.00000000E+00  0.00000000E+00
  0.00000000E+00  0.00000000E+00  0.00000000E+00
  0.00000000E+00  0.00000000E+00  0.00000000E+00
  0.00000000E+00  0.00000000E+00  0.00000000E+00
