title                                   
    1.000000000000000     
     9.3020943576057711    0.1375436143937994    0.0061504917091829
     0.1374848749619126    9.3074323945108262   -0.0258039445196200
     0.0040789811776237   -0.0172495546205674    6.2092683601513734
   Cr   Nb   Ta
    18    10     8
Direct
  0.0005116049368968  0.6611719392897478  0.5226452507057227
  0.5102306538218407  0.1739349883952179  0.7470526487414961
  0.0025037077111744  0.6634637907285660 -0.0172195383770440
  0.8256083600520394  0.1813972557315694  0.7409575600071625
  0.8275158109503756  0.1770720309672522  0.2538032719898642
  0.1658718557819603  0.8262062355879043  0.2416902748681673
  0.6792549739411424  0.6592949803287544 -0.0028873474741732
 -0.0167874795630564  0.3421307689828736  0.5009240055195872
  0.6731080456773200  0.3267064401643116 -0.0012462738794820
  0.5000469608279496  0.8318776724290462  0.7542312316886932
  0.8360539653688986  0.4997482688680705  0.7487685938656864
  0.6775650909681254  0.3272587769627748  0.4999242012885895
  0.1522408462889381  0.5138811572517652  0.7536824767293641
  0.3188943113331646  0.6745477704300323 -0.0020818337549922
  0.8400378981447522  0.8188957439836114  0.7531512863659408
  0.8309280292019652  0.4937261601988643  0.2584320217545040
  0.1618626976022868  0.8223831573651644  0.7585974684512073
  0.5083538587255633  0.1723041753478364  0.2452381251058783
  0.1543666308188349  0.5097329216031504  0.2546094690452003
  0.1613346381248729  0.1738502146926046  0.7435005582256814
  0.3379276160870479 -0.0031830405706475  0.5013516220322544
  0.3367312896809742  0.3356471028378560 -0.0025833776184374
  0.3368456753254371 -0.0042350422848539 -0.0094797814399011
  0.5105765535295946  0.5010345052558207  0.7620713066016007
  0.3230827490426638  0.6729831519658085  0.5137872187818801
  0.3406681118056670  0.3337799485757594  0.5032962300033956
  0.6772540993606727  0.6617533305014326  0.5156878915706776
  0.6681933304920525  0.0090817849157512  0.5006529057324548
  0.6690079554382242  0.0074858395362629 -0.0117917078991418
 -0.0048367119243357 -0.0046487997655922 -0.0065730436746582
 -0.0036514972763145 -0.0079202325479893  0.5028288454572218
  0.5038627933278085  0.8228691729749976  0.2370251084055620
 -0.0169348762094132  0.3423479617914016 -0.0037207298917981
  0.8398929960948933  0.8134099548055762  0.2441279990694317
  0.1604000140002837  0.1713630142295882  0.2531962797436226
  0.5114774405096975  0.4986468984697113  0.2463497822587810
 
  0.00000000E+00  0.00000000E+00  0.00000000E+00
  0.00000000E+00  0.00000000E+00  0.00000000E+00
  0.00000000E+00  0.00000000E+00  0.00000000E+00
  0.00000000E+00  0.00000000E+00  0.00000000E+00
  0.00000000E+00  0.00000000E+00  0.00000000E+00
  0.00000000E+00  0.00000000E+00  0.00000000E+00
  0.00000000E+00  0.00000000E+00  0.00000000E+00
  0.00000000E+00  0.00000000E+00  0.00000000E+00
  0.00000000E+00  0.00000000E+00  0.00000000E+00
  0.00000000E+00  0.00000000E+00  0.00000000E+00
  0.00000000E+00  0.00000000E+00  0.00000000E+00
  0.00000000E+00  0.00000000E+00  0.00000000E+00
  0.00000000E+00  0.00000000E+00  0.00000000E+00
  0.00000000E+00  0.00000000E+00  0.00000000E+00
  0.00000000E+00  0.00000000E+00  0.00000000E+00
  0.00000000E+00  0.00000000E+00  0.00000000E+00
  0.00000000E+00  0.00000000E+00  0.00000000E+00
  0.00000000E+00  0.00000000E+00  0.00000000E+00
  0.00000000E+00  0.00000000E+00  0.00000000E+00
  0.00000000E+00  0.00000000E+00  0.00000000E+00
  0.00000000E+00  0.00000000E+00  0.00000000E+00
  0.00000000E+00  0.00000000E+00  0.00000000E+00
  0.00000000E+00  0.00000000E+00  0.00000000E+00
  0.00000000E+00  0.00000000E+00  0.00000000E+00
  0.00000000E+00  0.00000000E+00  0.00000000E+00
  0.00000000E+00  0.00000000E+00  0.00000000E+00
  0.00000000E+00  0.00000000E+00  0.00000000E+00
  0.00000000E+00  0.00000000E+00  0.00000000E+00
  0.00000000E+00  0.00000000E+00  0.00000000E+00
  0.00000000E+00  0.00000000E+00  0.00000000E+00
  0.00000000E+00  0.00000000E+00  0.00000000E+00
  0.00000000E+00  0.00000000E+00  0.00000000E+00
  0.00000000E+00  0.00000000E+00  0.00000000E+00
  0.00000000E+00  0.00000000E+00  0.00000000E+00
  0.00000000E+00  0.00000000E+00  0.00000000E+00
  0.00000000E+00  0.00000000E+00  0.00000000E+00
