title                                   
    1.000000000000000     
     9.3305667611401191   -0.0030524627331596    0.0152397016304856
    -0.0030423933888596    9.3725435852739132    0.0058000437421896
     0.0101602511689501    0.0038707791835082    6.2132124565006066
   Cr   V    W    Zr
    10     4    19     3
Direct
 -0.0011032557602796  0.3366190610982162  0.5044390859337921
  0.3315476507912848  0.3372859830086355 -0.0025709207060209
  0.3402104447745770  0.6590298736783424  0.4997439967451892
  0.6609514131855312  0.6656881331636801  0.0058771408752664
  0.6678469722843016  0.3358551891626790  0.5033162013116895
  0.1668370503130471  0.4963974168042655  0.7473297455695259
  0.5018252668302663  0.8321016174763043  0.2481817107491969
  0.3407713937027176  0.6586222035949121  0.0009684767875548
  0.8328053885118741  0.4947711090138243  0.7437284395630781
  0.3403459315134133  0.0069938878725755  0.0015215970930203
  0.8307686758899948  0.8305508996909281  0.2495639653855320
  0.3411497761898489  0.0065344342247292  0.4976371948786787
 -0.0026582197547863  0.6471770526236041  0.5032130872944111
  0.8319719074886666  0.1727207795404970  0.7449663985477347
 -0.0034676327706962  0.0081132588380258  0.0028929198870686
  0.4966915935030480  0.8304707993797685  0.7558997118090038
  0.8317432549307147  0.1726470679843785  0.2549122710328487
  0.1688730290582555  0.1703832825944711  0.2479239439175071
  0.4972780693637618  0.5035805490083136  0.7533500537140690
  0.1686231325315850  0.4984677304248250  0.2496521638834232
  0.4980913594979730  0.1693090965100166  0.7509674863278598
  0.1684661438089466  0.1699730207624816  0.7505642655362121
 -0.0025411813112387  0.6530674679112406  0.0003066743406060
 -0.0024838325463383  0.0093863962762927  0.4983133109993782
  0.6629109235838586  0.6645591561892223  0.4946756174194173
  0.6615313741749268  0.0002899158918533  0.4959131673130367
  0.8310960948881596  0.4983777806425292  0.2550768002382731
  0.4971145008012586  0.1704219181773250  0.2482727495305755
  0.3318080747480034  0.3374648490235308  0.5036632768048086
  0.4977765897983641  0.5043020563604960  0.2459944587392210
 -0.0004574741630708  0.3363217921973364 -0.0100180589028324
  0.6620976921997288  0.0003632498701052  0.0062625626798441
  0.6676070696401633  0.3374580986632655 -0.0055061208578202
  0.1759595245252064  0.8277054176685699  0.7499665020852727
  0.8317912394952539  0.8273754766764387  0.7519417292001315
  0.1762200582816785  0.8296139779963198  0.2510583942734462
 
  0.00000000E+00  0.00000000E+00  0.00000000E+00
  0.00000000E+00  0.00000000E+00  0.00000000E+00
  0.00000000E+00  0.00000000E+00  0.00000000E+00
  0.00000000E+00  0.00000000E+00  0.00000000E+00
  0.00000000E+00  0.00000000E+00  0.00000000E+00
  0.00000000E+00  0.00000000E+00  0.00000000E+00
  0.00000000E+00  0.00000000E+00  0.00000000E+00
  0.00000000E+00  0.00000000E+00  0.00000000E+00
  0.00000000E+00  0.00000000E+00  0.00000000E+00
  0.00000000E+00  0.00000000E+00  0.00000000E+00
  0.00000000E+00  0.00000000E+00  0.00000000E+00
  0.00000000E+00  0.00000000E+00  0.00000000E+00
  0.00000000E+00  0.00000000E+00  0.00000000E+00
  0.00000000E+00  0.00000000E+00  0.00000000E+00
  0.00000000E+00  0.00000000E+00  0.00000000E+00
  0.00000000E+00  0.00000000E+00  0.00000000E+00
  0.00000000E+00  0.00000000E+00  0.00000000E+00
  0.00000000E+00  0.00000000E+00  0.00000000E+00
  0.00000000E+00  0.00000000E+00  0.00000000E+00
  0.00000000E+00  0.00000000E+00  0.00000000E+00
  0.00000000E+00  0.00000000E+00  0.00000000E+00
  0.00000000E+00  0.00000000E+00  0.00000000E+00
  0.00000000E+00  0.00000000E+00  0.00000000E+00
  0.00000000E+00  0.00000000E+00  0.00000000E+00
  0.00000000E+00  0.00000000E+00  0.00000000E+00
  0.00000000E+00  0.00000000E+00  0.00000000E+00
  0.00000000E+00  0.00000000E+00  0.00000000E+00
  0.00000000E+00  0.00000000E+00  0.00000000E+00
  0.00000000E+00  0.00000000E+00  0.00000000E+00
  0.00000000E+00  0.00000000E+00  0.00000000E+00
  0.00000000E+00  0.00000000E+00  0.00000000E+00
  0.00000000E+00  0.00000000E+00  0.00000000E+00
  0.00000000E+00  0.00000000E+00  0.00000000E+00
  0.00000000E+00  0.00000000E+00  0.00000000E+00
  0.00000000E+00  0.00000000E+00  0.00000000E+00
  0.00000000E+00  0.00000000E+00  0.00000000E+00
