title                                   
    1.000000000000000     
    10.0294086626503542   -0.0774842997626369    0.0089032521276255
    -0.0771909261146735   10.0283086738752605   -0.0288847806887660
     0.0058544925980758   -0.0193309067250654    6.6074703890486512
   Hf   Ti   V    W 
    14    11     4     7
Direct
  0.8299372544627024  0.1603411196235889  0.7446028120267952
  0.1649461829410458  0.1771848016424094  0.2525690655805473
  0.6625324712356937  0.6620680217441837  0.0048534188007167
  0.1702704807354501  0.5013859633000980  0.7460542023884134
  0.0169519198846619 -0.0239542421122686  0.4778321429933604
 -0.0055467578240584  0.6722455422012350  0.4883279144016650
  0.6621965694970815  0.3439563687963890 -0.0076870714892866
  0.8376873540445088  0.1660936662673722  0.2441430433647347
  0.6704792485398848  0.6661836323964296  0.4903941481970844
  0.5055435863850644  0.1531578528372108  0.2667967767512544
  0.3594474496954350  0.3277653830006467 -0.0223721617383846
  0.1653294384691429  0.4949777357826358  0.2449986144509437
  0.8238256327528281  0.8537140726061384  0.7631863090306202
  0.1565286466594673  0.1688252841503104  0.7521095947425444
  0.1842468061076500  0.8220600140072866  0.7454936875915552
  0.4816783751891894  0.5230254064111061  0.7227758675296716
  0.8573242432099678  0.4767262268932457  0.2473428870542384
  0.3499213615194385  0.6863502669110048  0.0141515822285660
  0.0227078230954863 -0.0236705872599378  0.0186791315998784
  0.6647917052469799  0.3467280150251464  0.5125089984152852
  0.8092184823406403  0.8575521774212955  0.2360891334542892
  0.4740366653255781  0.5052414525970362  0.2786445810396903
  0.3532989244984688  0.3193089348980937  0.5312159906378827
  0.3341822683217229 -0.0098682741804675  0.0024399196346113
 -0.0072312516744091  0.6726353949364312  0.0075889222730685
 -0.0206389381916125  0.3497547277985652  0.5256173341534146
  0.6448793037930525 -0.0194996689811602  0.5082516124828511
 -0.0220662082109376  0.3501647584985970 -0.0292044104266958
  0.5025103782431916  0.8455399887001301  0.2594792805336660
  0.8400423305031168  0.4959199853909146  0.7485406759420919
  0.1885471188446589  0.8274977545282024  0.2504606393388742
  0.4984737899659324  0.8347116668213754  0.7440913493503876
  0.3334666026279284  0.6792703462661842  0.4912803913546525
  0.3350081170034628 -0.0064131851701776  0.5035249046319271
  0.5095712704495278  0.1471447133505308  0.7398052532684064
  0.6459013543120569 -0.0041253170997814 -0.0045865415893217
 
  0.00000000E+00  0.00000000E+00  0.00000000E+00
  0.00000000E+00  0.00000000E+00  0.00000000E+00
  0.00000000E+00  0.00000000E+00  0.00000000E+00
  0.00000000E+00  0.00000000E+00  0.00000000E+00
  0.00000000E+00  0.00000000E+00  0.00000000E+00
  0.00000000E+00  0.00000000E+00  0.00000000E+00
  0.00000000E+00  0.00000000E+00  0.00000000E+00
  0.00000000E+00  0.00000000E+00  0.00000000E+00
  0.00000000E+00  0.00000000E+00  0.00000000E+00
  0.00000000E+00  0.00000000E+00  0.00000000E+00
  0.00000000E+00  0.00000000E+00  0.00000000E+00
  0.00000000E+00  0.00000000E+00  0.00000000E+00
  0.00000000E+00  0.00000000E+00  0.00000000E+00
  0.00000000E+00  0.00000000E+00  0.00000000E+00
  0.00000000E+00  0.00000000E+00  0.00000000E+00
  0.00000000E+00  0.00000000E+00  0.00000000E+00
  0.00000000E+00  0.00000000E+00  0.00000000E+00
  0.00000000E+00  0.00000000E+00  0.00000000E+00
  0.00000000E+00  0.00000000E+00  0.00000000E+00
  0.00000000E+00  0.00000000E+00  0.00000000E+00
  0.00000000E+00  0.00000000E+00  0.00000000E+00
  0.00000000E+00  0.00000000E+00  0.00000000E+00
  0.00000000E+00  0.00000000E+00  0.00000000E+00
  0.00000000E+00  0.00000000E+00  0.00000000E+00
  0.00000000E+00  0.00000000E+00  0.00000000E+00
  0.00000000E+00  0.00000000E+00  0.00000000E+00
  0.00000000E+00  0.00000000E+00  0.00000000E+00
  0.00000000E+00  0.00000000E+00  0.00000000E+00
  0.00000000E+00  0.00000000E+00  0.00000000E+00
  0.00000000E+00  0.00000000E+00  0.00000000E+00
  0.00000000E+00  0.00000000E+00  0.00000000E+00
  0.00000000E+00  0.00000000E+00  0.00000000E+00
  0.00000000E+00  0.00000000E+00  0.00000000E+00
  0.00000000E+00  0.00000000E+00  0.00000000E+00
  0.00000000E+00  0.00000000E+00  0.00000000E+00
  0.00000000E+00  0.00000000E+00  0.00000000E+00
