title                                   
    1.000000000000000     
     9.6481983922373988    0.0125962237030326   -0.0059948188697104
     0.0125868960920986    9.6310382788383215    0.0129078040597281
    -0.0039899949440044    0.0085984940188521    6.4304040086184004
   Nb   Ti   W 
     8    10    18
Direct
  0.1646919840629805  0.1667031686169460  0.7501170523867485
  0.3354244152832093  0.3313609640762620  0.0016478554748965
  0.1641384625494409  0.5005236984079166  0.7483594498420006
  0.1663789575726979  0.8367766491522224  0.7434153139022659
  0.1631258660668962  0.1650151658212895  0.2537705796315768
  0.3352502045386364  0.6669498302477068  0.0062718510683059
  0.6658475655041421  0.3326540597159724  0.5016056612995866
  0.5022383602093377  0.4995417319373704  0.7495250676280455
  0.6727222173269565  0.6701280911622191  0.0035574315535717
  0.8369760402581553  0.4910008957855121  0.2500461176975685
  0.4979239219760941  0.8366803165266277  0.7417151311783907
  0.1620883369896712  0.8367852129706846  0.2541747575682676
  0.8350091830739628  0.1699411839351147  0.2514356631451583
  0.6645057688637859 -0.0020733591629574  0.0030363975260353
  0.3373913142552115  0.6638305498094269  0.4878631062619850
 -0.0083532645055655  0.6683265166083802 -0.0009211053115851
  0.3419357518874507  0.0026057874478371  0.0049159957952860
  0.6661493104897211  0.6675008081026421  0.4919665990679135
 -0.0071122072477897 -0.0021712413746595 -0.0012399114785487
  0.6676900303986325 -0.0023578377477021  0.5006560950895673
 -0.0012004972184304  0.3368289509862965 -0.0001598002524481
  0.5029475279352683  0.1661334538005871  0.2525985129044950
  0.8322403164744485  0.8352642408362985  0.7476842111104131
  0.3368990875692571  0.0009735735729585  0.4962027255780946
 -0.0000403264543586  0.3344880934795548  0.5049215022333999
  0.5022306851154438  0.4960575626790452  0.2475274591789063
  0.8344192061941136  0.1655011947904799  0.7525286006535867
  0.8376925947971829  0.8376815555516591  0.2530448360346978
  0.5024079504645740  0.1633963262891485  0.7470879279112610
 -0.0050714032606692  0.6662870731963111  0.4994360898891022
  0.1608483911425697  0.4993744819026719  0.2515571075139360
  0.4993924521817703  0.8365587394014741  0.2562806376472739
 -0.0044005048692621 -0.0009887450330117  0.5033579224999619
  0.3357158957953608  0.3352944589247655  0.4961676771057970
  0.8354776218945821  0.4966328084431676  0.7506108888929857
  0.6664187826845227  0.3307940391397828 -0.0007654082284996
 
  0.00000000E+00  0.00000000E+00  0.00000000E+00
  0.00000000E+00  0.00000000E+00  0.00000000E+00
  0.00000000E+00  0.00000000E+00  0.00000000E+00
  0.00000000E+00  0.00000000E+00  0.00000000E+00
  0.00000000E+00  0.00000000E+00  0.00000000E+00
  0.00000000E+00  0.00000000E+00  0.00000000E+00
  0.00000000E+00  0.00000000E+00  0.00000000E+00
  0.00000000E+00  0.00000000E+00  0.00000000E+00
  0.00000000E+00  0.00000000E+00  0.00000000E+00
  0.00000000E+00  0.00000000E+00  0.00000000E+00
  0.00000000E+00  0.00000000E+00  0.00000000E+00
  0.00000000E+00  0.00000000E+00  0.00000000E+00
  0.00000000E+00  0.00000000E+00  0.00000000E+00
  0.00000000E+00  0.00000000E+00  0.00000000E+00
  0.00000000E+00  0.00000000E+00  0.00000000E+00
  0.00000000E+00  0.00000000E+00  0.00000000E+00
  0.00000000E+00  0.00000000E+00  0.00000000E+00
  0.00000000E+00  0.00000000E+00  0.00000000E+00
  0.00000000E+00  0.00000000E+00  0.00000000E+00
  0.00000000E+00  0.00000000E+00  0.00000000E+00
  0.00000000E+00  0.00000000E+00  0.00000000E+00
  0.00000000E+00  0.00000000E+00  0.00000000E+00
  0.00000000E+00  0.00000000E+00  0.00000000E+00
  0.00000000E+00  0.00000000E+00  0.00000000E+00
  0.00000000E+00  0.00000000E+00  0.00000000E+00
  0.00000000E+00  0.00000000E+00  0.00000000E+00
  0.00000000E+00  0.00000000E+00  0.00000000E+00
  0.00000000E+00  0.00000000E+00  0.00000000E+00
  0.00000000E+00  0.00000000E+00  0.00000000E+00
  0.00000000E+00  0.00000000E+00  0.00000000E+00
  0.00000000E+00  0.00000000E+00  0.00000000E+00
  0.00000000E+00  0.00000000E+00  0.00000000E+00
  0.00000000E+00  0.00000000E+00  0.00000000E+00
  0.00000000E+00  0.00000000E+00  0.00000000E+00
  0.00000000E+00  0.00000000E+00  0.00000000E+00
  0.00000000E+00  0.00000000E+00  0.00000000E+00
