title                                   
    1.000000000000000     
     9.7479273718975445    0.0138675821525746    0.0116920136875610
     0.0138494330013045    9.7115580773811256    0.0050153894225850
     0.0077910885374420    0.0033472575014601    6.4793398847608499
   Mo   Nb   Ti   W 
     4    19     3    10
Direct
  0.0020110379633415  0.3324478814014454  0.0034230180606395
  0.8371469588714514  0.1696933797291611  0.2496071843642731
  0.3318451265858465  0.0015117491898874  0.4986623446159230
  0.0013793042442504  0.3331092676358220  0.4936849990076811
  0.3333599423558457  0.3332100902336374  0.5003880521096734
  0.1648630474730507  0.8340652521678861  0.7478077771317293
  0.8382666104461755  0.4981027056261855  0.2511809833584498
  0.8363631265565410  0.8320917248036656  0.2486206119400004
  0.1608761471588684  0.4978977299828092  0.7502304700134776
  0.8368925941947664  0.8319169007746827  0.7504332579191303
  0.6662614086154821  0.3317925132051471  0.0016384753538192
  0.4982407108760826  0.8354563207599909  0.7485802211094752
  0.6684682945133159  0.0049515437393228  0.5007554867317598
  0.6682227152870156  0.0046163035753924  0.0003422707954635
  0.3309298537474857  0.0004121106446838  0.0001321545494203
  0.3311770746355573  0.6640903992611693  0.5000125691274184
  0.4992946686542761  0.4968061038515352  0.2525191178414892
  0.4959384725048234  0.8355856301151036  0.2536233359606526
  0.4975684869445107  0.1663550846143732  0.2528210583842428
  0.6624521968241653  0.6642882855171349 -0.0007376282933749
  0.6659217507774121  0.6638875291104698  0.5033622440448365
  0.1639816813588423  0.1684225138620111  0.7493770951956245
  0.0000921854657201  0.0017240518063741  0.4935406018058177
  0.3301909783991570  0.6625411020185624  0.0011195471795943
  0.8384120525953080  0.1757752742611219  0.7502118060005405
  0.8390817945756013  0.4944353980898417  0.7494985556377403
  0.1620819083661478  0.4974932513354601  0.2478559873270582
  0.1636733653945077  0.8329727166478296  0.2483939271761864
  0.0053384649925075  0.6668749969481219  0.0023928978687832
  0.3329103125919546  0.3344099080635675 -0.0000842362629522
  0.0029495152332249  0.6669567967831752  0.4951927776005053
  0.5001464883148344  0.1686127965574913  0.7499667294565063
  0.5013208740392116  0.4960348690261798  0.7508881505413745
  0.1649993943708532  0.1679765438323101  0.2466171077260998
  0.0017439654210982  0.0014263903236486  0.0042295645072174
  0.6655974896507671  0.3320548845047979  0.5037114841137214
 
  0.00000000E+00  0.00000000E+00  0.00000000E+00
  0.00000000E+00  0.00000000E+00  0.00000000E+00
  0.00000000E+00  0.00000000E+00  0.00000000E+00
  0.00000000E+00  0.00000000E+00  0.00000000E+00
  0.00000000E+00  0.00000000E+00  0.00000000E+00
  0.00000000E+00  0.00000000E+00  0.00000000E+00
  0.00000000E+00  0.00000000E+00  0.00000000E+00
  0.00000000E+00  0.00000000E+00  0.00000000E+00
  0.00000000E+00  0.00000000E+00  0.00000000E+00
  0.00000000E+00  0.00000000E+00  0.00000000E+00
  0.00000000E+00  0.00000000E+00  0.00000000E+00
  0.00000000E+00  0.00000000E+00  0.00000000E+00
  0.00000000E+00  0.00000000E+00  0.00000000E+00
  0.00000000E+00  0.00000000E+00  0.00000000E+00
  0.00000000E+00  0.00000000E+00  0.00000000E+00
  0.00000000E+00  0.00000000E+00  0.00000000E+00
  0.00000000E+00  0.00000000E+00  0.00000000E+00
  0.00000000E+00  0.00000000E+00  0.00000000E+00
  0.00000000E+00  0.00000000E+00  0.00000000E+00
  0.00000000E+00  0.00000000E+00  0.00000000E+00
  0.00000000E+00  0.00000000E+00  0.00000000E+00
  0.00000000E+00  0.00000000E+00  0.00000000E+00
  0.00000000E+00  0.00000000E+00  0.00000000E+00
  0.00000000E+00  0.00000000E+00  0.00000000E+00
  0.00000000E+00  0.00000000E+00  0.00000000E+00
  0.00000000E+00  0.00000000E+00  0.00000000E+00
  0.00000000E+00  0.00000000E+00  0.00000000E+00
  0.00000000E+00  0.00000000E+00  0.00000000E+00
  0.00000000E+00  0.00000000E+00  0.00000000E+00
  0.00000000E+00  0.00000000E+00  0.00000000E+00
  0.00000000E+00  0.00000000E+00  0.00000000E+00
  0.00000000E+00  0.00000000E+00  0.00000000E+00
  0.00000000E+00  0.00000000E+00  0.00000000E+00
  0.00000000E+00  0.00000000E+00  0.00000000E+00
  0.00000000E+00  0.00000000E+00  0.00000000E+00
  0.00000000E+00  0.00000000E+00  0.00000000E+00
