title                                   
    1.000000000000000     
    10.2542415847063157   -0.0059039947811763   -0.0209776248522637
    -0.0082300115200089    9.8372843978777880    0.0970013404273257
    -0.0141739381228939    0.0644350323948229    6.5652695844403066
   Hf   Mo   Nb   V    Zr
     7     7     8     7     7
Direct
  0.8587896417713049  0.8404462734696231  0.2612651660451338
  0.6635721973545701  0.6675585644043838  0.4880727643024532
  0.4690104103218249  0.1469644258289172  0.7599834114767303
  0.5045844648764160  0.5042881488342652  0.2131378656382681
  0.4935731740604782  0.8311080155147277  0.7736316725972602
  0.8524849879635471  0.1667495873425289  0.2397694482749654
  0.1510742074905462  0.4981810408834769  0.7492262916520506
  0.1538563410289512  0.4985767600669813  0.2447733595847261
  0.0154519568837007  0.0047527340115628 -0.0077171436508477
  0.1610806147132732  0.1614215684486527  0.7470712515816043
  0.0170549449707305  0.0064114632051224  0.5102729575882223
 -0.0028271930398740  0.3338068258493317 -0.0115376815877365
  0.3178833881628181 -0.0126017630861394  0.0127893630039466
  0.1665310438590415  0.8379016204554518  0.7536711357498292
  0.3155187265661608  0.6720787834119208  0.0154654059167759
  0.6654833980862002 -0.0122560980706152  0.0158016975076909
  0.0126145049009800  0.6683040171141442  0.0171624619328853
  0.4925822428307016  0.5104510972643195  0.7725800668377457
  0.8543599125185088  0.5034894902560083  0.7414586029059070
  0.8417700231268324  0.5028570939598047  0.2418885105626351
  0.1585482353007343  0.1602205538553353  0.2430215501950981
  0.3175923274921998  0.3316162101241227 -0.0037239628396831
  0.4755321064365845  0.8427071003561948  0.2440248102668919
  0.8704818041022588  0.1665368170616041  0.7415444887371503
  0.0033731685874498  0.3364207319299928  0.4902098916894521
  0.6755983927412917  0.6785135652162722  0.0273080879361173
  0.3139425466198083 -0.0180384693200366  0.4997914135454518
  0.1659027036828059  0.8455888997493944  0.2563791675407379
  0.0156359733935497  0.6643089516058306  0.4911125973734020
  0.3259554947731760  0.6737492613912590  0.4940741077982866
  0.6716750857352549  0.0107366526630963  0.5172130604289705
  0.6767279834361868  0.3340968463358487  0.5057621769372217
  0.8463627124840405  0.8368180177649720  0.7630440234054681
  0.6762581295710701  0.3248127522013755 -0.0403612177836406
  0.4856221544550113  0.1490004940862736  0.2431983737319776
  0.3163421927418643  0.3324219658139945  0.4886348231168510
 
  0.00000000E+00  0.00000000E+00  0.00000000E+00
  0.00000000E+00  0.00000000E+00  0.00000000E+00
  0.00000000E+00  0.00000000E+00  0.00000000E+00
  0.00000000E+00  0.00000000E+00  0.00000000E+00
  0.00000000E+00  0.00000000E+00  0.00000000E+00
  0.00000000E+00  0.00000000E+00  0.00000000E+00
  0.00000000E+00  0.00000000E+00  0.00000000E+00
  0.00000000E+00  0.00000000E+00  0.00000000E+00
  0.00000000E+00  0.00000000E+00  0.00000000E+00
  0.00000000E+00  0.00000000E+00  0.00000000E+00
  0.00000000E+00  0.00000000E+00  0.00000000E+00
  0.00000000E+00  0.00000000E+00  0.00000000E+00
  0.00000000E+00  0.00000000E+00  0.00000000E+00
  0.00000000E+00  0.00000000E+00  0.00000000E+00
  0.00000000E+00  0.00000000E+00  0.00000000E+00
  0.00000000E+00  0.00000000E+00  0.00000000E+00
  0.00000000E+00  0.00000000E+00  0.00000000E+00
  0.00000000E+00  0.00000000E+00  0.00000000E+00
  0.00000000E+00  0.00000000E+00  0.00000000E+00
  0.00000000E+00  0.00000000E+00  0.00000000E+00
  0.00000000E+00  0.00000000E+00  0.00000000E+00
  0.00000000E+00  0.00000000E+00  0.00000000E+00
  0.00000000E+00  0.00000000E+00  0.00000000E+00
  0.00000000E+00  0.00000000E+00  0.00000000E+00
  0.00000000E+00  0.00000000E+00  0.00000000E+00
  0.00000000E+00  0.00000000E+00  0.00000000E+00
  0.00000000E+00  0.00000000E+00  0.00000000E+00
  0.00000000E+00  0.00000000E+00  0.00000000E+00
  0.00000000E+00  0.00000000E+00  0.00000000E+00
  0.00000000E+00  0.00000000E+00  0.00000000E+00
  0.00000000E+00  0.00000000E+00  0.00000000E+00
  0.00000000E+00  0.00000000E+00  0.00000000E+00
  0.00000000E+00  0.00000000E+00  0.00000000E+00
  0.00000000E+00  0.00000000E+00  0.00000000E+00
  0.00000000E+00  0.00000000E+00  0.00000000E+00
  0.00000000E+00  0.00000000E+00  0.00000000E+00
