title                                   
    1.000000000000000     
    10.1080379257698016    0.0030115206513912    0.1063602196092124
     0.0026763586217964   10.1496661212590364   -0.0061051562279006
     0.0707577276001413   -0.0039425945742377    6.8555658890107107
   Hf   Nb   Ta   Ti   Zr
    12     2    15     6     1
Direct
  0.8317014045779035  0.8280565138552791  0.7370127930244315
  0.0184981530657699  0.6678812332407934  0.0131959120145584
  0.3409690545019900  0.3347072230531140  0.5135051495374977
  0.1750564125572897  0.1611390318754860  0.2583769016215089
  0.3229213657394921  0.3397846820232601 -0.0195668520389876
  0.1585237390827477  0.8431875926471202  0.7156903974202780
  0.3436077015842881  0.6523147960155488  0.5189570430662969
  0.8321323207445253  0.4990236993125944  0.2518361982078869
  0.6513265993148567  0.3309227830043658  0.5050056751945735
  0.3585527100588844  0.0175607772658257  0.5309029641588178
  0.4949145907757178  0.8336853125877811  0.2427906853255168
  0.8360112253726369  0.5011670733312457  0.7473183592571448
  0.6704524679692248  0.6735458287829439  0.0057462216896626
  0.0045537885345484  0.6717528291974052  0.4674204468845932
  0.3335121318292941 -0.0013489066730753 -0.0182533512569990
  0.8331386010096186  0.1696753683494575  0.7521845257592668
  0.5125864683708823  0.8351698106294415  0.7687990776379723
  0.6676238483919208  0.0055050042862756  0.4999694654299429
  0.6781867896470574  0.0019536547125641  0.0092223403101693
  0.5166462848775961  0.5101815635390333  0.7931589752014417
  0.6477186973868495  0.6631831335985527  0.5055279626478085
  0.6695697263002904  0.3272750065081856  0.0084784992623069
  0.0079172831890950  0.3320023186295856 -0.0054354961753975
  0.8299605340408639  0.1747851097617903  0.2473901954970159
  0.4985704699904793  0.1631263736710330  0.2253784764595201
  0.1610361684052346  0.4897891177547822  0.2671387169247669
  0.8198903246330225  0.8263444326038281  0.2575116124381688
  0.1817953212462101  0.8387683268690947  0.2626274638467602
 -0.0075741273964934  0.3195511967223081  0.4947611305188866
  0.5019049316588332  0.5067607337789207  0.2200289750792561
 -0.0231300886199176  0.0071242232178142  0.4750274731458727
  0.3232719224441343  0.6653570736730867 -0.0089253273947112
  0.5226779429411039  0.1590184535581633  0.7924429429329901
  0.1399893719700964  0.4960576859213456  0.7159782479446826
  0.1468708591676398  0.1601612900882414  0.7374877260498564
 -0.0013849953636838 -0.0051703473931943  0.0113084723766434
 
  0.00000000E+00  0.00000000E+00  0.00000000E+00
  0.00000000E+00  0.00000000E+00  0.00000000E+00
  0.00000000E+00  0.00000000E+00  0.00000000E+00
  0.00000000E+00  0.00000000E+00  0.00000000E+00
  0.00000000E+00  0.00000000E+00  0.00000000E+00
  0.00000000E+00  0.00000000E+00  0.00000000E+00
  0.00000000E+00  0.00000000E+00  0.00000000E+00
  0.00000000E+00  0.00000000E+00  0.00000000E+00
  0.00000000E+00  0.00000000E+00  0.00000000E+00
  0.00000000E+00  0.00000000E+00  0.00000000E+00
  0.00000000E+00  0.00000000E+00  0.00000000E+00
  0.00000000E+00  0.00000000E+00  0.00000000E+00
  0.00000000E+00  0.00000000E+00  0.00000000E+00
  0.00000000E+00  0.00000000E+00  0.00000000E+00
  0.00000000E+00  0.00000000E+00  0.00000000E+00
  0.00000000E+00  0.00000000E+00  0.00000000E+00
  0.00000000E+00  0.00000000E+00  0.00000000E+00
  0.00000000E+00  0.00000000E+00  0.00000000E+00
  0.00000000E+00  0.00000000E+00  0.00000000E+00
  0.00000000E+00  0.00000000E+00  0.00000000E+00
  0.00000000E+00  0.00000000E+00  0.00000000E+00
  0.00000000E+00  0.00000000E+00  0.00000000E+00
  0.00000000E+00  0.00000000E+00  0.00000000E+00
  0.00000000E+00  0.00000000E+00  0.00000000E+00
  0.00000000E+00  0.00000000E+00  0.00000000E+00
  0.00000000E+00  0.00000000E+00  0.00000000E+00
  0.00000000E+00  0.00000000E+00  0.00000000E+00
  0.00000000E+00  0.00000000E+00  0.00000000E+00
  0.00000000E+00  0.00000000E+00  0.00000000E+00
  0.00000000E+00  0.00000000E+00  0.00000000E+00
  0.00000000E+00  0.00000000E+00  0.00000000E+00
  0.00000000E+00  0.00000000E+00  0.00000000E+00
  0.00000000E+00  0.00000000E+00  0.00000000E+00
  0.00000000E+00  0.00000000E+00  0.00000000E+00
  0.00000000E+00  0.00000000E+00  0.00000000E+00
  0.00000000E+00  0.00000000E+00  0.00000000E+00
