title                                   
    1.000000000000000     
     9.3357304250524802    0.0003258758274437    0.0050663412093426
     0.0003271808750229    9.3447625922795492    0.0062487674264780
     0.0033745012175527    0.0041585551304778    6.2210095903275393
   Cr   Mo   W 
     8    18    10
Direct
  0.6651590721682504  0.6665462545759905  0.4998258331434884
  0.6704119901330077 -0.0004843691781451  0.5005424556075416
  0.3364629490070776  0.6654746412766444  0.4989648776562077
  0.5016004422645823  0.5006625387612347  0.2533191159954509
  0.8318019245689310  0.1650798553968958  0.2506360613484771
  0.6660893325523612  0.3334231282254416  0.4970129139052484
 -0.0028339058359385  0.0001884642087420  0.0007663288682442
  0.8315606084139718  0.8354088045083740  0.7491042142140458
  0.8273472255811066  0.4990800168838242  0.2556344016417633
  0.1638121212500343  0.1653471589488297  0.7515856624137431
  0.5065661483141719  0.1673848975588277  0.2547697329076761
 -0.0065724195779405 -0.0001987653140773  0.5012345726362769
  0.3352244954828267 -0.0006004292737305  0.4996492572028393
  0.6726704952677657 -0.0001839664336054  0.0005763464084486
  0.3363622783647076  0.3352341982843095  0.0012528235407504
 -0.0033825412471703  0.6696446122466999 -0.0015332724536283
  0.8309346461912417  0.1633385541236708  0.7465987682996709
  0.8310673167726081  0.8369109458698016  0.2529161421355788
  0.5054086467203536  0.1668969862497117  0.7458510513130295
  0.1678593644336226  0.5015749117015469  0.7483399420123217
  0.8288847548783339  0.5001643537693633  0.7464327772714922
 -0.0047131675617684  0.3313997653312396  0.4983400902771594
  0.1679585072666189  0.5012495792879215  0.2515990206582521
  0.5028943256116025  0.5022976216474176  0.7394401354861373
 -0.0040644304590166  0.3302929683085092  0.0018698269716373
  0.5034570195867260  0.8298431619512634  0.2570436055097667
 -0.0043703516406456  0.6686775306721250  0.5023489515679143
  0.3354616530863336 -0.0003710667619482 -0.0003452410459249
  0.3370029320108595  0.3365815605841583  0.4969644454285346
  0.1654259643599076  0.8338072470391007  0.2503772183092950
  0.5055216620399883  0.8315266019248326  0.7421191522642571
  0.1654228710180108  0.8337156366542675  0.7503375156384715
  0.6668492162330102  0.3332641087411349  0.0052647528866661
  0.1630556764115786  0.1651487584396794  0.2477399194840373
  0.6667780705851929  0.6665275401344105  0.0008025249248771
  0.3368851057476961  0.6651461936555393  0.0026180755702529
 
  0.00000000E+00  0.00000000E+00  0.00000000E+00
  0.00000000E+00  0.00000000E+00  0.00000000E+00
  0.00000000E+00  0.00000000E+00  0.00000000E+00
  0.00000000E+00  0.00000000E+00  0.00000000E+00
  0.00000000E+00  0.00000000E+00  0.00000000E+00
  0.00000000E+00  0.00000000E+00  0.00000000E+00
  0.00000000E+00  0.00000000E+00  0.00000000E+00
  0.00000000E+00  0.00000000E+00  0.00000000E+00
  0.00000000E+00  0.00000000E+00  0.00000000E+00
  0.00000000E+00  0.00000000E+00  0.00000000E+00
  0.00000000E+00  0.00000000E+00  0.00000000E+00
  0.00000000E+00  0.00000000E+00  0.00000000E+00
  0.00000000E+00  0.00000000E+00  0.00000000E+00
  0.00000000E+00  0.00000000E+00  0.00000000E+00
  0.00000000E+00  0.00000000E+00  0.00000000E+00
  0.00000000E+00  0.00000000E+00  0.00000000E+00
  0.00000000E+00  0.00000000E+00  0.00000000E+00
  0.00000000E+00  0.00000000E+00  0.00000000E+00
  0.00000000E+00  0.00000000E+00  0.00000000E+00
  0.00000000E+00  0.00000000E+00  0.00000000E+00
  0.00000000E+00  0.00000000E+00  0.00000000E+00
  0.00000000E+00  0.00000000E+00  0.00000000E+00
  0.00000000E+00  0.00000000E+00  0.00000000E+00
  0.00000000E+00  0.00000000E+00  0.00000000E+00
  0.00000000E+00  0.00000000E+00  0.00000000E+00
  0.00000000E+00  0.00000000E+00  0.00000000E+00
  0.00000000E+00  0.00000000E+00  0.00000000E+00
  0.00000000E+00  0.00000000E+00  0.00000000E+00
  0.00000000E+00  0.00000000E+00  0.00000000E+00
  0.00000000E+00  0.00000000E+00  0.00000000E+00
  0.00000000E+00  0.00000000E+00  0.00000000E+00
  0.00000000E+00  0.00000000E+00  0.00000000E+00
  0.00000000E+00  0.00000000E+00  0.00000000E+00
  0.00000000E+00  0.00000000E+00  0.00000000E+00
  0.00000000E+00  0.00000000E+00  0.00000000E+00
  0.00000000E+00  0.00000000E+00  0.00000000E+00
