title                                   
    1.000000000000000     
    10.0836792219853884    0.0181869503955679    0.0055254818537001
     0.0177579470360351   10.1363506138214383    0.0006170118236189
     0.0034962206653384    0.0008450558431098    6.7933214394425514
   Hf   Ta   Ti
    12    12    12
Direct
  0.8218482191956435  0.1522484024905599  0.7731218198260095
  0.3481960659077175  0.6610385507945459  0.5229628678360631
  0.5278226548332577  0.8108332500654871  0.2518389652072213
  0.3169817684076018  0.3336954591160987  0.0027599567350015
  0.6748925053547831  0.3329257070186035  0.4839089877602767
  0.3289024243485319  0.6675678836056871 -0.0052891258661402
  0.8265340772975079  0.8282463513719267  0.7595636223216465
 -0.0119185153411135  0.3335160826304915  0.4867735144762579
  0.0219606322454581 -0.0073653580557502  0.0062737360755029
  0.0056258051505587  0.3329763461554648  0.0029546252234957
  0.3345245500437653  0.0013223673287031  0.0020602729545370
  0.8245569733533801  0.5338596244231497  0.2191338169633269
  0.1650194036576730  0.5125291383566557  0.2730877617269320
  0.5200677848182335  0.8547188251425197  0.7456691827853109
  0.1668436125201485  0.8406897337959109  0.7161164550495969
 -0.0050797037718731  0.0018583155654110  0.4894493943762946
  0.3298516719893090  0.3399865018568248  0.5043400754690684
  0.4992679789566136  0.4968660178904561  0.2483084203813583
 -0.0025853854209491  0.6696852308986886  0.5005373685939239
  0.3466361225777895 -0.0016678428092857  0.5043808802121510
  0.5005580572877162  0.1726692478364699  0.7461596066203858
  0.8321319649370135  0.1536717238752384  0.2212113179742863
  0.1687273298370451  0.1625697482528753  0.7184081653084229
  0.8437851791140184  0.5128453711289901  0.7629253469964331
  0.4834420919356250  0.1833466673278687  0.2638237456917003
  0.6446160492312877  0.0117664410588423  0.0280026325386434
  0.6577050963355773  0.6487242891005606  0.5310704815256585
  0.0249307764309838  0.6792977414156484 -0.0064426773283825
  0.6384461525569565  0.6457814502567596 -0.0465501409967899
  0.8358646649082300  0.8355675696098831  0.2519141133933355
  0.6653939044897891  0.0111175828990352  0.4731094580312417
  0.6669223749600445  0.3336143600565419  0.0147180202333108
  0.1664622460180538  0.8285743590405098  0.2882404651674559
  0.4996089090320230  0.4620304624737890  0.7542701902355790
  0.1810873859596909  0.1617401242202207  0.2864320386636193
  0.1503691708419066  0.5011522738046190  0.7247546378372646
 
  0.00000000E+00  0.00000000E+00  0.00000000E+00
  0.00000000E+00  0.00000000E+00  0.00000000E+00
  0.00000000E+00  0.00000000E+00  0.00000000E+00
  0.00000000E+00  0.00000000E+00  0.00000000E+00
  0.00000000E+00  0.00000000E+00  0.00000000E+00
  0.00000000E+00  0.00000000E+00  0.00000000E+00
  0.00000000E+00  0.00000000E+00  0.00000000E+00
  0.00000000E+00  0.00000000E+00  0.00000000E+00
  0.00000000E+00  0.00000000E+00  0.00000000E+00
  0.00000000E+00  0.00000000E+00  0.00000000E+00
  0.00000000E+00  0.00000000E+00  0.00000000E+00
  0.00000000E+00  0.00000000E+00  0.00000000E+00
  0.00000000E+00  0.00000000E+00  0.00000000E+00
  0.00000000E+00  0.00000000E+00  0.00000000E+00
  0.00000000E+00  0.00000000E+00  0.00000000E+00
  0.00000000E+00  0.00000000E+00  0.00000000E+00
  0.00000000E+00  0.00000000E+00  0.00000000E+00
  0.00000000E+00  0.00000000E+00  0.00000000E+00
  0.00000000E+00  0.00000000E+00  0.00000000E+00
  0.00000000E+00  0.00000000E+00  0.00000000E+00
  0.00000000E+00  0.00000000E+00  0.00000000E+00
  0.00000000E+00  0.00000000E+00  0.00000000E+00
  0.00000000E+00  0.00000000E+00  0.00000000E+00
  0.00000000E+00  0.00000000E+00  0.00000000E+00
  0.00000000E+00  0.00000000E+00  0.00000000E+00
  0.00000000E+00  0.00000000E+00  0.00000000E+00
  0.00000000E+00  0.00000000E+00  0.00000000E+00
  0.00000000E+00  0.00000000E+00  0.00000000E+00
  0.00000000E+00  0.00000000E+00  0.00000000E+00
  0.00000000E+00  0.00000000E+00  0.00000000E+00
  0.00000000E+00  0.00000000E+00  0.00000000E+00
  0.00000000E+00  0.00000000E+00  0.00000000E+00
  0.00000000E+00  0.00000000E+00  0.00000000E+00
  0.00000000E+00  0.00000000E+00  0.00000000E+00
  0.00000000E+00  0.00000000E+00  0.00000000E+00
  0.00000000E+00  0.00000000E+00  0.00000000E+00
