title                                   
    1.000000000000000     
     9.4544037969461687   -0.0250591414317984   -0.0853830206860726
    -0.0253007288289218    9.5622481526970375   -0.0103263710297045
    -0.0569364402479166   -0.0069366012710615    6.2791448266511871
   Cr   Hf   Mo   Ta   Ti
    12     1     2    15     6
Direct
  0.6699745518362937  0.6702646888415758  0.0067979356104968
  0.3438465053952168  0.6705860282349614  0.5023258851024094
  0.8338138092013822  0.8291657645919828  0.2496496551441185
  0.5047767851159751  0.1646182026504599  0.2519886183451109
  0.4992975052773391  0.5084452618102393  0.2486144808873798
 -0.0111379902107380  0.6653334528960845  0.5010590417681463
 -0.0031480603186507 -0.0086255492243232  0.0039296823889186
  0.4972233868922962  0.8296775688687772  0.7536179778547106
  0.5021375239622727  0.1678079788331445  0.7477114511915728
  0.8406445505866287  0.5176047126612249  0.7438862131149856
  0.1676445271332923  0.1565285081300491  0.7454630943383814
 -0.0094967704461283  0.6632427661627643 -0.0031311148218022
  0.0076508448937480  0.3389673886240214 -0.0200761695164482
  0.3392072062600111  0.6675188742831163  0.0021597851302230
  0.6601634451809738 -0.0010191744303832  0.5031398275206791
  0.1585578300600051  0.1560651539026358  0.2449173668476075
  0.8300604601652716  0.1562666059443889  0.7501152964287976
  0.3358863441841682  0.0060398508356482  0.5133700020534001
  0.6603001272812083  0.3367995993631496  0.4919364771244975
  0.4973347026779554  0.5121131736050208  0.7530897701333024
  0.6555194678797402 -0.0002674265132263  0.0031360867365735
  0.3358207617703994  0.0048808716839513 -0.0100733777266588
  0.3412952693216663  0.3260916728109510 -0.0013966888080352
 -0.0003977358567738 -0.0074053036043842  0.5041064625654506
  0.6697507613482365  0.6672786046747157  0.5026637001970221
  0.8371749308625073  0.8279177940229450  0.7686621985063882
  0.0022589487335568  0.3356495380592102  0.5058721693462029
  0.8375132965253118  0.5146486114655484  0.2388377706125542
  0.1593199108801434  0.8213798162796344  0.2485247790598167
  0.4974557929711426  0.8270594003860757  0.2544174446269791
  0.1745023340763888  0.5236230880586716  0.7374742198891635
  0.6571900499006130  0.3332647137585075  0.0004467386472957
  0.1603601743844224  0.8198428864412329  0.7554055099786512
  0.8338812890062205  0.1563624569458014  0.2470124442129057
  0.1720205667089013  0.5173133213152891  0.2563062937754661
  0.3415968963590020  0.3249590976305376  0.4980389717337370
 
  0.00000000E+00  0.00000000E+00  0.00000000E+00
  0.00000000E+00  0.00000000E+00  0.00000000E+00
  0.00000000E+00  0.00000000E+00  0.00000000E+00
  0.00000000E+00  0.00000000E+00  0.00000000E+00
  0.00000000E+00  0.00000000E+00  0.00000000E+00
  0.00000000E+00  0.00000000E+00  0.00000000E+00
  0.00000000E+00  0.00000000E+00  0.00000000E+00
  0.00000000E+00  0.00000000E+00  0.00000000E+00
  0.00000000E+00  0.00000000E+00  0.00000000E+00
  0.00000000E+00  0.00000000E+00  0.00000000E+00
  0.00000000E+00  0.00000000E+00  0.00000000E+00
  0.00000000E+00  0.00000000E+00  0.00000000E+00
  0.00000000E+00  0.00000000E+00  0.00000000E+00
  0.00000000E+00  0.00000000E+00  0.00000000E+00
  0.00000000E+00  0.00000000E+00  0.00000000E+00
  0.00000000E+00  0.00000000E+00  0.00000000E+00
  0.00000000E+00  0.00000000E+00  0.00000000E+00
  0.00000000E+00  0.00000000E+00  0.00000000E+00
  0.00000000E+00  0.00000000E+00  0.00000000E+00
  0.00000000E+00  0.00000000E+00  0.00000000E+00
  0.00000000E+00  0.00000000E+00  0.00000000E+00
  0.00000000E+00  0.00000000E+00  0.00000000E+00
  0.00000000E+00  0.00000000E+00  0.00000000E+00
  0.00000000E+00  0.00000000E+00  0.00000000E+00
  0.00000000E+00  0.00000000E+00  0.00000000E+00
  0.00000000E+00  0.00000000E+00  0.00000000E+00
  0.00000000E+00  0.00000000E+00  0.00000000E+00
  0.00000000E+00  0.00000000E+00  0.00000000E+00
  0.00000000E+00  0.00000000E+00  0.00000000E+00
  0.00000000E+00  0.00000000E+00  0.00000000E+00
  0.00000000E+00  0.00000000E+00  0.00000000E+00
  0.00000000E+00  0.00000000E+00  0.00000000E+00
  0.00000000E+00  0.00000000E+00  0.00000000E+00
  0.00000000E+00  0.00000000E+00  0.00000000E+00
  0.00000000E+00  0.00000000E+00  0.00000000E+00
  0.00000000E+00  0.00000000E+00  0.00000000E+00
