title                                   
    1.000000000000000     
     9.5776025425110305   -0.0148357210156754    0.0478972061495599
    -0.0147541941861088    9.5772562788675888    0.0533101697029520
     0.0321070656540573    0.0355460602788115    6.4779635794472172
   Hf   Ti   V    W 
    10     4    19     3
Direct
  0.4906318516274954  0.8270980415768030  0.7627761143723070
  0.1594621192293227  0.1484302938329849  0.2417165742705300
  0.6627465455223083  0.6701306138138666  0.4738142451789696
  0.3198978969051367  0.6527974259433295  0.4977234323874962
  0.0075919138246797  0.3489828498001121  0.4991535978149474
  0.6674103723985995  0.0110738155138399  0.0014097951045962
  0.0037395403855634  0.6724829117742841 -0.0009680155610888
  0.8119901160544750  0.4937422446090102  0.7670453959507459
  0.8553871796021832  0.8655273581616698  0.2720188928095987
  0.3377029638906803  0.3330293885380529  0.5045183962955955
  0.0091014884570701  0.6709660752853898  0.5175240429086695
  0.8196152236363781  0.4750145082942009  0.2253301351953667
  0.1751249117460532  0.8479501473012521  0.2474905175431317
  0.3481456363222881  0.3226344487416476 -0.0095918515568254
  0.6513193134330564  0.3190082368919790  0.0007773433406966
  0.8298805223841772  0.1767808072534993  0.7405217014657768
  0.3334155197395530  0.6548981505735371  0.0106050406015793
  0.4780689560681392  0.8390148563950270  0.2357467153874585
  0.8300206264868274  0.1809336049390821  0.2527087355783016
  0.6568594849929742  0.3234771072786023  0.4939497219477404
  0.3401015803201831  0.0003305088255854  0.5041409023887767
 -0.0014545048328347  0.0170636744880935  0.5347158074796242
  0.1805535796664757  0.8482686246048117  0.7570566535101058
  0.5113846248453562  0.1614555155978605  0.7226928350677776
  0.5061470386518042  0.1556137162490617  0.2755315188715503
  0.6693412625815647  0.0196883117462183  0.5087696617288003
  0.3359916058679686 -0.0003639538010773 -0.0047633392320779
  0.1731967141349476  0.4887811819182577  0.1964938077195611
 -0.0033869226627691  0.3193179743267405 -0.0111998293615704
  0.5093896551917612  0.5016000340524147  0.7658483691685823
  0.6538153351247193  0.6648879682250944  0.0221868427869835
  0.1696973131391046  0.4876219465643852  0.8035177720677634
  0.0001466635681882  0.0025927228643893 -0.0323501645957100
  0.5037036900112707  0.4950012426288642  0.2301911098848050
  0.8385854131937632  0.8470399840758933  0.7361891768675712
  0.1646747684915357  0.1571276611152379  0.7567083446118634
 
  0.00000000E+00  0.00000000E+00  0.00000000E+00
  0.00000000E+00  0.00000000E+00  0.00000000E+00
  0.00000000E+00  0.00000000E+00  0.00000000E+00
  0.00000000E+00  0.00000000E+00  0.00000000E+00
  0.00000000E+00  0.00000000E+00  0.00000000E+00
  0.00000000E+00  0.00000000E+00  0.00000000E+00
  0.00000000E+00  0.00000000E+00  0.00000000E+00
  0.00000000E+00  0.00000000E+00  0.00000000E+00
  0.00000000E+00  0.00000000E+00  0.00000000E+00
  0.00000000E+00  0.00000000E+00  0.00000000E+00
  0.00000000E+00  0.00000000E+00  0.00000000E+00
  0.00000000E+00  0.00000000E+00  0.00000000E+00
  0.00000000E+00  0.00000000E+00  0.00000000E+00
  0.00000000E+00  0.00000000E+00  0.00000000E+00
  0.00000000E+00  0.00000000E+00  0.00000000E+00
  0.00000000E+00  0.00000000E+00  0.00000000E+00
  0.00000000E+00  0.00000000E+00  0.00000000E+00
  0.00000000E+00  0.00000000E+00  0.00000000E+00
  0.00000000E+00  0.00000000E+00  0.00000000E+00
  0.00000000E+00  0.00000000E+00  0.00000000E+00
  0.00000000E+00  0.00000000E+00  0.00000000E+00
  0.00000000E+00  0.00000000E+00  0.00000000E+00
  0.00000000E+00  0.00000000E+00  0.00000000E+00
  0.00000000E+00  0.00000000E+00  0.00000000E+00
  0.00000000E+00  0.00000000E+00  0.00000000E+00
  0.00000000E+00  0.00000000E+00  0.00000000E+00
  0.00000000E+00  0.00000000E+00  0.00000000E+00
  0.00000000E+00  0.00000000E+00  0.00000000E+00
  0.00000000E+00  0.00000000E+00  0.00000000E+00
  0.00000000E+00  0.00000000E+00  0.00000000E+00
  0.00000000E+00  0.00000000E+00  0.00000000E+00
  0.00000000E+00  0.00000000E+00  0.00000000E+00
  0.00000000E+00  0.00000000E+00  0.00000000E+00
  0.00000000E+00  0.00000000E+00  0.00000000E+00
  0.00000000E+00  0.00000000E+00  0.00000000E+00
  0.00000000E+00  0.00000000E+00  0.00000000E+00
