title                                   
    1.000000000000000     
     9.8087015046883543    0.0065454660829984    0.0058484674189298
     0.0065538191152854    9.7277726159397968   -0.0045131945605520
     0.0038344421097881   -0.0030313111031071    6.4728259575412910
   Hf   Ta   Ti   W    Zr
     1     6    12    15     2
Direct
  0.4987042706795910  0.8370831125031833  0.2476267606046207
  0.5020726793407458  0.5057625641481371  0.7481094440647000
  0.6709925215981775  0.6641143536855341  0.5083486260408495
  0.6779893324295203  0.0077111862647751 -0.0239311270336997
 -0.0000034672231456 -0.0019599535749728 -0.0083968748140366
  0.1678196057453768  0.1696718847459717  0.7511455624847059
  0.1615968074680773  0.4978665810729563  0.7473066365047644
  0.8416934872007658  0.1748696543825472  0.2532777731825438
  0.6738585761848788  0.3361035011018230  0.0018465142562229
  0.0072158719728862 -0.0070195738917664  0.5080337603261128
  0.5063809044087851  0.5080453530352396  0.2526883036398664
  0.4965394483400170  0.8295712608005769  0.7550660463497577
  0.3249806292664141  0.6625586712546337  0.0039034170808743
  0.5030583856076133  0.1626693740465108  0.2520075260450348
  0.3271261645824401  0.3455616524835360  0.0202547395842265
  0.3274699137219738  0.3448768776062837  0.4725499060294984
  0.1605820541679432  0.1683081453086970  0.2453482498404375
  0.6828905803917660  0.0031520525186022  0.5275004172260148
  0.3110624276650888 -0.0125891348704910  0.4995811238269340
  0.8400896392220336  0.1743477823884909  0.7465516196487050
 -0.0003064968880242  0.6627881992554929  0.5030258624010441
  0.8360852097573321  0.4979352042666417  0.7501214222130754
  0.0014575738948576  0.3352046009677304  0.4979113452197357
  0.8359467127428593  0.8252268428034191  0.7541391975701621
  0.3252167407299330  0.6671927571238963  0.5015074774452689
 -0.0036557991137153  0.3357440498479892 -0.0010005475122393
  0.1662303389891119  0.8268495293838833  0.7512852416438107
  0.0039711878221985  0.6645386339487949 -0.0007432437621756
  0.1592215318267425  0.5010836975546971  0.2515015052508658
  0.6728520956864456  0.6589000268315214 -0.0044401345262664
  0.8344828615886731  0.4965948844153250  0.2520203482252926
  0.1653507494494449  0.8285067499453452  0.2481111044746719
  0.6750091095283448  0.3371306207665247  0.4988582809777469
  0.3196629186652773 -0.0083863827842481 -0.0038716868517845
  0.8342272923710119  0.8314469173758968  0.2519597114383518
  0.4921281401785583  0.1685383232868208  0.7407956909043066
 
  0.00000000E+00  0.00000000E+00  0.00000000E+00
  0.00000000E+00  0.00000000E+00  0.00000000E+00
  0.00000000E+00  0.00000000E+00  0.00000000E+00
  0.00000000E+00  0.00000000E+00  0.00000000E+00
  0.00000000E+00  0.00000000E+00  0.00000000E+00
  0.00000000E+00  0.00000000E+00  0.00000000E+00
  0.00000000E+00  0.00000000E+00  0.00000000E+00
  0.00000000E+00  0.00000000E+00  0.00000000E+00
  0.00000000E+00  0.00000000E+00  0.00000000E+00
  0.00000000E+00  0.00000000E+00  0.00000000E+00
  0.00000000E+00  0.00000000E+00  0.00000000E+00
  0.00000000E+00  0.00000000E+00  0.00000000E+00
  0.00000000E+00  0.00000000E+00  0.00000000E+00
  0.00000000E+00  0.00000000E+00  0.00000000E+00
  0.00000000E+00  0.00000000E+00  0.00000000E+00
  0.00000000E+00  0.00000000E+00  0.00000000E+00
  0.00000000E+00  0.00000000E+00  0.00000000E+00
  0.00000000E+00  0.00000000E+00  0.00000000E+00
  0.00000000E+00  0.00000000E+00  0.00000000E+00
  0.00000000E+00  0.00000000E+00  0.00000000E+00
  0.00000000E+00  0.00000000E+00  0.00000000E+00
  0.00000000E+00  0.00000000E+00  0.00000000E+00
  0.00000000E+00  0.00000000E+00  0.00000000E+00
  0.00000000E+00  0.00000000E+00  0.00000000E+00
  0.00000000E+00  0.00000000E+00  0.00000000E+00
  0.00000000E+00  0.00000000E+00  0.00000000E+00
  0.00000000E+00  0.00000000E+00  0.00000000E+00
  0.00000000E+00  0.00000000E+00  0.00000000E+00
  0.00000000E+00  0.00000000E+00  0.00000000E+00
  0.00000000E+00  0.00000000E+00  0.00000000E+00
  0.00000000E+00  0.00000000E+00  0.00000000E+00
  0.00000000E+00  0.00000000E+00  0.00000000E+00
  0.00000000E+00  0.00000000E+00  0.00000000E+00
  0.00000000E+00  0.00000000E+00  0.00000000E+00
  0.00000000E+00  0.00000000E+00  0.00000000E+00
  0.00000000E+00  0.00000000E+00  0.00000000E+00
