title                                   
    1.000000000000000     
     9.8371402900692146   -0.0210935446108421   -0.0523616622043299
    -0.0213283548559501    9.9264594332286507   -0.0310300701008935
    -0.0345118097503674   -0.0209044984187704    6.7763164220349337
   Hf   Mo   Ti   W    Zr
     7     7     7     8     7
Direct
  0.6658474004346686  0.6627342154731232 -0.0147468485540951
  0.8339332648804929  0.8270700775305045  0.2635632858038256
  0.8361563629157354  0.5003025436574218  0.7164472424979645
  0.5047677825908303  0.8393775580948724  0.2578331192250158
  0.4966984421465672  0.5040468822110540  0.2655060835414412
  0.3299151806365232  0.3201837915903878  0.0052081072251605
  0.1601892939491152  0.5102516364703297  0.2486393095923828
  0.8326261435912293  0.1663105793038821  0.7222104903565770
  0.1637767417228342  0.8319697864002790  0.7611356519700532
  0.3314511316863780  0.3231895221387648  0.4846263814002717
  0.1695550556459095  0.1670011712446668  0.7293710372098869
  0.6656275452586135  0.6758156742396265  0.5159810525630606
  0.3323377706215101  0.6813745723157211 -0.0137996293406215
  0.0018701184178405  0.3192221825760064  0.4892996489265286
  0.0056596579857127  0.0011791273200952  0.5232251696961996
  0.8396138734142158  0.5025979354667793  0.2689526931143699
  0.6713893884822565 -0.0028199755340866 -0.0232561777657626
  0.6769750330566912  0.0011698850631446  0.5306060791371824
  0.1597995955350667  0.8276550326223523  0.2518198137519838
  0.8337933234546642  0.1653104009175014  0.2753813913994796
  0.5053713691936083  0.4903420729910169  0.7146443018864916
  0.8370331548860611  0.8247347978439730  0.7478730168281090
  0.5017822936055932  0.1651480941263902  0.2678604945161285
  0.1643444749728202  0.1679828435693883  0.2712562073844245
  0.5014458785883200  0.8384955436607788  0.7535106668047017
  0.3265293703670104  0.0015967244535553  0.5083003284687819
  0.0060145007829341  0.6829389614443327  0.5125344828589748
  0.6683164178905965  0.3225733245370037  0.4819795756828202
 -0.0066332734397521  0.6764933212448381 -0.0091229392537986
  0.6696626009964823  0.3253423981031664  0.0005829373054359
  0.3306317308774261  0.6869671843273896  0.5257331052742195
 -0.0020301497724608  0.0024315660655798 -0.0066364500411405
  0.4997323381018868  0.1697396370275223  0.7318628912589967
 -0.0052827146162093  0.3176118532362843 -0.0073937736431164
  0.1632748959178961  0.4988858153780033  0.7458793092124685
  0.3278240052209319  0.0047732628883509  0.0031319437055969
 
  0.00000000E+00  0.00000000E+00  0.00000000E+00
  0.00000000E+00  0.00000000E+00  0.00000000E+00
  0.00000000E+00  0.00000000E+00  0.00000000E+00
  0.00000000E+00  0.00000000E+00  0.00000000E+00
  0.00000000E+00  0.00000000E+00  0.00000000E+00
  0.00000000E+00  0.00000000E+00  0.00000000E+00
  0.00000000E+00  0.00000000E+00  0.00000000E+00
  0.00000000E+00  0.00000000E+00  0.00000000E+00
  0.00000000E+00  0.00000000E+00  0.00000000E+00
  0.00000000E+00  0.00000000E+00  0.00000000E+00
  0.00000000E+00  0.00000000E+00  0.00000000E+00
  0.00000000E+00  0.00000000E+00  0.00000000E+00
  0.00000000E+00  0.00000000E+00  0.00000000E+00
  0.00000000E+00  0.00000000E+00  0.00000000E+00
  0.00000000E+00  0.00000000E+00  0.00000000E+00
  0.00000000E+00  0.00000000E+00  0.00000000E+00
  0.00000000E+00  0.00000000E+00  0.00000000E+00
  0.00000000E+00  0.00000000E+00  0.00000000E+00
  0.00000000E+00  0.00000000E+00  0.00000000E+00
  0.00000000E+00  0.00000000E+00  0.00000000E+00
  0.00000000E+00  0.00000000E+00  0.00000000E+00
  0.00000000E+00  0.00000000E+00  0.00000000E+00
  0.00000000E+00  0.00000000E+00  0.00000000E+00
  0.00000000E+00  0.00000000E+00  0.00000000E+00
  0.00000000E+00  0.00000000E+00  0.00000000E+00
  0.00000000E+00  0.00000000E+00  0.00000000E+00
  0.00000000E+00  0.00000000E+00  0.00000000E+00
  0.00000000E+00  0.00000000E+00  0.00000000E+00
  0.00000000E+00  0.00000000E+00  0.00000000E+00
  0.00000000E+00  0.00000000E+00  0.00000000E+00
  0.00000000E+00  0.00000000E+00  0.00000000E+00
  0.00000000E+00  0.00000000E+00  0.00000000E+00
  0.00000000E+00  0.00000000E+00  0.00000000E+00
  0.00000000E+00  0.00000000E+00  0.00000000E+00
  0.00000000E+00  0.00000000E+00  0.00000000E+00
  0.00000000E+00  0.00000000E+00  0.00000000E+00
