title                                   
    1.000000000000000     
    10.2191398272554732   -0.0571611256003973    0.0154935986520309
    -0.0565626568176048   10.3766149543974997   -0.0608879519505637
     0.0113084757400170   -0.0424173862942596    6.8412262877368564
   Hf   Mo   Ta   Ti   Zr
     6     1     2    15    12
Direct
  0.4964606518927803  0.8640825824388162  0.7358121624502405
  0.8200671543666492  0.5068579824519073  0.7802781515746693
  0.3396925332663616  0.6747386239848677 -0.0041955527336019
  0.0258566139137025 -0.0281566068550628  0.0177226252944579
  0.5127779324129597  0.4842537375318453  0.2234306301815608
  0.3313065719010042  0.6674312913436420  0.4959365755531013
  0.1778479890112105  0.8273339837269310  0.2519853944604632
  0.6832661395384441  0.2980466254527351  0.0153949191120948
  0.3466496633837826  0.3573165100797652  0.5207303238919382
  0.6789213896299650  0.0334919295335789  0.4718151638968639
  0.6384289621957312  0.6898003778497130 -0.0120451664817484
  0.1476562433764816  0.4913370450921903  0.7043860202768236
  0.5186850354717849  0.4792266304647165  0.7904521357837817
  0.1558802336309459  0.4864474102878431  0.2823820982740070
  0.3222299887629765 -0.0125653729669975  0.4520236479759208
  0.8373061631071106  0.1420912132048857  0.7785784104663692
  0.8580155545151996  0.1493299350283125  0.2136044266767558
  0.1935537839091280  0.8580713947316861  0.7376047246723302
  0.3307568799425675 -0.0135431019837305  0.0345798017165489
  0.5170571015467447  0.8453057830530417  0.2725359633718957
  0.4828206535468678  0.1771871781605403  0.2597405181392300
  0.6529198796724958  0.0183742599765021  0.0292951277555930
  0.0123519495954645 -0.0154645648926845  0.4767948150137093
 -0.0019022857705019  0.3395140554351961 -0.0143238722384053
  0.3067038268559687  0.3576589034320112 -0.0229446753508297
  0.1734838153468583  0.1801380270102260  0.2566023151748266
  0.8155422787544362  0.8333074978504169  0.2528728745249922
  0.8274355289943004  0.5033263345364151  0.2324595901523828
  0.0253758150444892  0.6653903358046251 -0.0018202103203428
  0.6374356205879340  0.6547328961616887  0.5255673685269697
  0.8216586984676779  0.8482178921303287  0.7468790682185329
  0.6718999272172869  0.3204752169239151  0.5021303223145001
  0.0116357843481134  0.6850827532162223  0.4975139024772015
  0.4910338093175388  0.1605324412044999  0.7460593448757400
  0.1681477355823360  0.1550412239165220  0.7418124130578533
 -0.0289596233367962  0.3155875746828880  0.5083486412635733
 
  0.00000000E+00  0.00000000E+00  0.00000000E+00
  0.00000000E+00  0.00000000E+00  0.00000000E+00
  0.00000000E+00  0.00000000E+00  0.00000000E+00
  0.00000000E+00  0.00000000E+00  0.00000000E+00
  0.00000000E+00  0.00000000E+00  0.00000000E+00
  0.00000000E+00  0.00000000E+00  0.00000000E+00
  0.00000000E+00  0.00000000E+00  0.00000000E+00
  0.00000000E+00  0.00000000E+00  0.00000000E+00
  0.00000000E+00  0.00000000E+00  0.00000000E+00
  0.00000000E+00  0.00000000E+00  0.00000000E+00
  0.00000000E+00  0.00000000E+00  0.00000000E+00
  0.00000000E+00  0.00000000E+00  0.00000000E+00
  0.00000000E+00  0.00000000E+00  0.00000000E+00
  0.00000000E+00  0.00000000E+00  0.00000000E+00
  0.00000000E+00  0.00000000E+00  0.00000000E+00
  0.00000000E+00  0.00000000E+00  0.00000000E+00
  0.00000000E+00  0.00000000E+00  0.00000000E+00
  0.00000000E+00  0.00000000E+00  0.00000000E+00
  0.00000000E+00  0.00000000E+00  0.00000000E+00
  0.00000000E+00  0.00000000E+00  0.00000000E+00
  0.00000000E+00  0.00000000E+00  0.00000000E+00
  0.00000000E+00  0.00000000E+00  0.00000000E+00
  0.00000000E+00  0.00000000E+00  0.00000000E+00
  0.00000000E+00  0.00000000E+00  0.00000000E+00
  0.00000000E+00  0.00000000E+00  0.00000000E+00
  0.00000000E+00  0.00000000E+00  0.00000000E+00
  0.00000000E+00  0.00000000E+00  0.00000000E+00
  0.00000000E+00  0.00000000E+00  0.00000000E+00
  0.00000000E+00  0.00000000E+00  0.00000000E+00
  0.00000000E+00  0.00000000E+00  0.00000000E+00
  0.00000000E+00  0.00000000E+00  0.00000000E+00
  0.00000000E+00  0.00000000E+00  0.00000000E+00
  0.00000000E+00  0.00000000E+00  0.00000000E+00
  0.00000000E+00  0.00000000E+00  0.00000000E+00
  0.00000000E+00  0.00000000E+00  0.00000000E+00
  0.00000000E+00  0.00000000E+00  0.00000000E+00
