title                                   
    1.000000000000000     
     9.9114722093943470    0.0255167107574344    0.0504816655942154
     0.0258412664273938    9.8284377122649946   -0.0376397084014706
     0.0337700988072081   -0.0252928823161068    6.6337718913149946
   Nb   Ti   V    Zr
     9     9     9     9
Direct
  0.4998880540151564  0.1626593842643673  0.7488850898839067
  0.6616347643603187  0.6863706329446300 -0.0308433441374264
  0.1534122663806204  0.1647428834871145  0.2709750684332639
  0.1574721064769939  0.4970407525400908  0.7539083061245536
 -0.0050490244284877  0.6606537802349678  0.5155950745658465
  0.1596337042375027  0.5005032930394652  0.2402693470360831
  0.6697186064629819  0.3169188656416802 -0.0166706786856888
  0.8170395474457465  0.1735783787181463  0.2726695025189653
  0.3251079676097498  0.3309967585120515 -0.0037834511071524
  0.6534106575950691  0.3344585728226348  0.5171572342588393
  0.6578036072284192  0.6675190576596183  0.5278402231684137
  0.3617920992425632 -0.0013962165192592  0.4895894747477287
  0.6689392863948226 -0.0011031212932790 -0.0152286890201539
  0.8358019723526604  0.4961944986022378  0.7492012615666701
  0.0010180343505542  0.3317020379588749 -0.0017731962110746
 -0.0340545323810842  0.0142178968690226  0.5278503848708266
  0.1636433364924508  0.1685563794074902  0.7321639844579332
  0.3358813648710436  0.6633648470329376 -0.0204553356580176
  0.5080277495560170  0.4927541744432751  0.7760899932593559
  0.5211237635125820  0.8467489419257026  0.7285409564840102
  0.5290557818721161  0.8416775382415639  0.2686108960544978
  0.5259102929688112  0.1538462286116082  0.2573111045597010
  0.8316428281578209  0.8158751387626749  0.7516599534238674
  0.0083780304852968  0.6455998599726388 -0.0130371930625004
  0.6599982260146832 -0.0008567744323419  0.5083212812229569
  0.8306726941816567  0.1937734433446845  0.7336340589504906
 -0.0014454455413569  0.3229275320540466  0.4994781943607799
  0.3533284955575489 -0.0051522691490976  0.0180614767500341
  0.5097724935202010  0.5031303037333149  0.2189986174275227
  0.8349269777126819  0.5004180265066847  0.2497721850961105
  0.1556404043298215  0.8385920129621265  0.7491577971905207
 -0.0246562620344563  0.0208889046065681 -0.0136521991843583
  0.1575573385304253  0.8300092138437540  0.2529678213363341
  0.3503323956849045  0.6720841182954976  0.5089875413868603
  0.3375684225723420  0.3308708909395537  0.4936976310090129
  0.8290719942118245  0.8298340334149563  0.2540496269212870
 
  0.00000000E+00  0.00000000E+00  0.00000000E+00
  0.00000000E+00  0.00000000E+00  0.00000000E+00
  0.00000000E+00  0.00000000E+00  0.00000000E+00
  0.00000000E+00  0.00000000E+00  0.00000000E+00
  0.00000000E+00  0.00000000E+00  0.00000000E+00
  0.00000000E+00  0.00000000E+00  0.00000000E+00
  0.00000000E+00  0.00000000E+00  0.00000000E+00
  0.00000000E+00  0.00000000E+00  0.00000000E+00
  0.00000000E+00  0.00000000E+00  0.00000000E+00
  0.00000000E+00  0.00000000E+00  0.00000000E+00
  0.00000000E+00  0.00000000E+00  0.00000000E+00
  0.00000000E+00  0.00000000E+00  0.00000000E+00
  0.00000000E+00  0.00000000E+00  0.00000000E+00
  0.00000000E+00  0.00000000E+00  0.00000000E+00
  0.00000000E+00  0.00000000E+00  0.00000000E+00
  0.00000000E+00  0.00000000E+00  0.00000000E+00
  0.00000000E+00  0.00000000E+00  0.00000000E+00
  0.00000000E+00  0.00000000E+00  0.00000000E+00
  0.00000000E+00  0.00000000E+00  0.00000000E+00
  0.00000000E+00  0.00000000E+00  0.00000000E+00
  0.00000000E+00  0.00000000E+00  0.00000000E+00
  0.00000000E+00  0.00000000E+00  0.00000000E+00
  0.00000000E+00  0.00000000E+00  0.00000000E+00
  0.00000000E+00  0.00000000E+00  0.00000000E+00
  0.00000000E+00  0.00000000E+00  0.00000000E+00
  0.00000000E+00  0.00000000E+00  0.00000000E+00
  0.00000000E+00  0.00000000E+00  0.00000000E+00
  0.00000000E+00  0.00000000E+00  0.00000000E+00
  0.00000000E+00  0.00000000E+00  0.00000000E+00
  0.00000000E+00  0.00000000E+00  0.00000000E+00
  0.00000000E+00  0.00000000E+00  0.00000000E+00
  0.00000000E+00  0.00000000E+00  0.00000000E+00
  0.00000000E+00  0.00000000E+00  0.00000000E+00
  0.00000000E+00  0.00000000E+00  0.00000000E+00
  0.00000000E+00  0.00000000E+00  0.00000000E+00
  0.00000000E+00  0.00000000E+00  0.00000000E+00
