title                                   
    1.000000000000000     
     9.9876806829517264   -0.0662303511605772   -0.0916507290794754
    -0.0662220115655294   10.0091361175095397   -0.0046930965870898
    -0.0607876478132548   -0.0029439860592954    6.6915099378710767
   Hf   Mo   Nb   W    Zr
     7     7     8     7     7
Direct
  0.1686967636272269  0.8296744557799488  0.2716459311944228
  0.6611824144292259  0.0008393134623332  0.4821734044887506
  0.3341224228810023  0.0036147717274138  0.0087354465389634
  0.6669924429601941  0.3430125556947580  0.4877078712395425
 -0.0117409081096254  0.6534672767643603 -0.0103354659233557
  0.8390107389492141  0.1753889703413817  0.7657830829558266
  0.1708386268469204  0.8336938292863013  0.7365371678760306
  0.3347373477422866  0.0065300629013818  0.5008422298392069
  0.3476925796127154  0.6682232379359121  0.5100698113815517
  0.0119508971849676  0.0122204807175547  0.0046061550171919
  0.5062240729135384  0.5032555961810671  0.2602363169975673
  0.0009724453599475  0.3271598722317530  0.4926531949241452
  0.8308273431937163  0.4962727611710111  0.7450060678004008
  0.6688463604044176  0.3407586743188877  0.0078210478676979
 -0.0229205587731474  0.6591744413987254  0.5028474743608912
  0.5050256388314679  0.5033359664656754  0.7444300095793753
  0.8264756557478264  0.8276528202851952  0.2398544152642603
  0.4945144256049779  0.8280140497880689  0.2673574150660846
  0.6627760609975059  0.6632440940285037  0.0005996941060082
  0.8327311047748436  0.4946669105369749  0.2421088345421617
  0.6544157790968125 -0.0022001335371855  0.0173652859774473
  0.8405615733006866  0.1772779830177106  0.2257178707750205
  0.1655826756917323  0.1683896853772646  0.2522580246198664
  0.4974070111816248  0.1700967172325807  0.2553801243209795
  0.3397188096851576  0.3264816466976606  0.4940191284221950
  0.6610482740578475  0.6629564200878922  0.4972042516273136
  0.0056850506655423  0.3318053781735772 -0.0022407619626017
  0.1638884052745544  0.1693521057714710  0.7439182821941352
  0.4987586665862898  0.8302746402603776  0.7441650124070279
  0.1644414871977966  0.4933405760002776  0.2685381632160730
  0.3359673846601122  0.3262381016755133  0.0088772146282852
  0.1667195320302667  0.4921878850686924  0.7310287419271131
 -0.0015454522108631  0.0098780539483347  0.4877387361369439
  0.5047086218437157  0.1697403485155543  0.7511456088237294
  0.3474329929929736  0.6650698796179031  0.0063506197045573
  0.8262533127665262  0.8389105710751688  0.7578535920651902
 
  0.00000000E+00  0.00000000E+00  0.00000000E+00
  0.00000000E+00  0.00000000E+00  0.00000000E+00
  0.00000000E+00  0.00000000E+00  0.00000000E+00
  0.00000000E+00  0.00000000E+00  0.00000000E+00
  0.00000000E+00  0.00000000E+00  0.00000000E+00
  0.00000000E+00  0.00000000E+00  0.00000000E+00
  0.00000000E+00  0.00000000E+00  0.00000000E+00
  0.00000000E+00  0.00000000E+00  0.00000000E+00
  0.00000000E+00  0.00000000E+00  0.00000000E+00
  0.00000000E+00  0.00000000E+00  0.00000000E+00
  0.00000000E+00  0.00000000E+00  0.00000000E+00
  0.00000000E+00  0.00000000E+00  0.00000000E+00
  0.00000000E+00  0.00000000E+00  0.00000000E+00
  0.00000000E+00  0.00000000E+00  0.00000000E+00
  0.00000000E+00  0.00000000E+00  0.00000000E+00
  0.00000000E+00  0.00000000E+00  0.00000000E+00
  0.00000000E+00  0.00000000E+00  0.00000000E+00
  0.00000000E+00  0.00000000E+00  0.00000000E+00
  0.00000000E+00  0.00000000E+00  0.00000000E+00
  0.00000000E+00  0.00000000E+00  0.00000000E+00
  0.00000000E+00  0.00000000E+00  0.00000000E+00
  0.00000000E+00  0.00000000E+00  0.00000000E+00
  0.00000000E+00  0.00000000E+00  0.00000000E+00
  0.00000000E+00  0.00000000E+00  0.00000000E+00
  0.00000000E+00  0.00000000E+00  0.00000000E+00
  0.00000000E+00  0.00000000E+00  0.00000000E+00
  0.00000000E+00  0.00000000E+00  0.00000000E+00
  0.00000000E+00  0.00000000E+00  0.00000000E+00
  0.00000000E+00  0.00000000E+00  0.00000000E+00
  0.00000000E+00  0.00000000E+00  0.00000000E+00
  0.00000000E+00  0.00000000E+00  0.00000000E+00
  0.00000000E+00  0.00000000E+00  0.00000000E+00
  0.00000000E+00  0.00000000E+00  0.00000000E+00
  0.00000000E+00  0.00000000E+00  0.00000000E+00
  0.00000000E+00  0.00000000E+00  0.00000000E+00
  0.00000000E+00  0.00000000E+00  0.00000000E+00
