title                                   
    1.000000000000000     
     9.8088069007423542    0.0126983943844633    0.0043022088353571
     0.0126998078593594    9.8889671412757334    0.0088119326195741
     0.0028461716688487    0.0058775845966652    6.6253164691540070
   Nb   Ta   Ti
    12    12    12
Direct
  0.3348518971942733  0.3355944535195795  0.5018716158642994
  0.8179863579145962  0.5019299351016799  0.7475542267213805
  0.6679715293167637  0.0023318210802340 -0.0033699246017797
  0.4950590520101567  0.4986518665610222  0.2517625472379273
  0.4981803732693752  0.1689734783671696  0.7505374486603031
  0.3359047456967317  0.3354144591849187 -0.0010296534622324
  0.1684444030499635  0.1653461030050985  0.7490071424380415
  0.3352754955070219  0.0004622656699505  0.5003612816481210
  0.8293596948716561  0.8330610061720574  0.7503720076321988
  0.3319411417097325  0.0008751064294534 -0.0013462965039679
  0.8301515509472056  0.1647489150717406  0.7564670454323674
  0.1736325139551725  0.4992887725329740  0.7496653145066243
  0.1729888807431829  0.8347691546647602  0.7487128893830759
  0.8501351376419173  0.4969732219885956  0.2518401341818260
  0.1666508407450611  0.8351222195712650  0.2503113791072980
  0.8349608858551014  0.8371832224243196  0.2478289735802864
  0.5008962378667592  0.8370147775300776  0.2485321599842827
  0.3319432364263534  0.6641864816365307  0.4947193558729271
  0.3334533818433456  0.6639697469610567  0.0054588984037070
  0.0010117659699905 -0.0017513666300605 -0.0035080514699967
 -0.0041008326401166 -0.0005676265867942  0.5040469381331849
  0.4942839035080468  0.1638604935581267  0.2490871499105451
 -0.0043726522283981  0.3337382370792016 -0.0207594498887178
  0.6710210530592322  0.6673919425393783  0.4866155922812505
  0.6706518380512094  0.6613556548907700  0.0147297539866680
  0.1655740730741420  0.1702605474211963  0.2497867944580119
  0.6676237113177550  0.3299440748118142  0.4892781296921785
  0.8387162176391538  0.1651391158247648  0.2428362560785275
 -0.0018594355327464  0.6691321834589529 -0.0121709202246475
 -0.0004399812392918  0.6693170878429134  0.5122847917951717
  0.6691559373966260  0.0037119248053599  0.5024195160263668
  0.4994391076910011  0.8284340898714574  0.7492605466473725
  0.1567045249031659  0.4945747922470536  0.2491067192486085
  0.6664967293640115  0.3351158355640382  0.0146789290179532
 -0.0062082977040654  0.3326568937648279  0.5245987263689347
  0.5065149808059123  0.5017891120645155  0.7484520318519005
 
  0.00000000E+00  0.00000000E+00  0.00000000E+00
  0.00000000E+00  0.00000000E+00  0.00000000E+00
  0.00000000E+00  0.00000000E+00  0.00000000E+00
  0.00000000E+00  0.00000000E+00  0.00000000E+00
  0.00000000E+00  0.00000000E+00  0.00000000E+00
  0.00000000E+00  0.00000000E+00  0.00000000E+00
  0.00000000E+00  0.00000000E+00  0.00000000E+00
  0.00000000E+00  0.00000000E+00  0.00000000E+00
  0.00000000E+00  0.00000000E+00  0.00000000E+00
  0.00000000E+00  0.00000000E+00  0.00000000E+00
  0.00000000E+00  0.00000000E+00  0.00000000E+00
  0.00000000E+00  0.00000000E+00  0.00000000E+00
  0.00000000E+00  0.00000000E+00  0.00000000E+00
  0.00000000E+00  0.00000000E+00  0.00000000E+00
  0.00000000E+00  0.00000000E+00  0.00000000E+00
  0.00000000E+00  0.00000000E+00  0.00000000E+00
  0.00000000E+00  0.00000000E+00  0.00000000E+00
  0.00000000E+00  0.00000000E+00  0.00000000E+00
  0.00000000E+00  0.00000000E+00  0.00000000E+00
  0.00000000E+00  0.00000000E+00  0.00000000E+00
  0.00000000E+00  0.00000000E+00  0.00000000E+00
  0.00000000E+00  0.00000000E+00  0.00000000E+00
  0.00000000E+00  0.00000000E+00  0.00000000E+00
  0.00000000E+00  0.00000000E+00  0.00000000E+00
  0.00000000E+00  0.00000000E+00  0.00000000E+00
  0.00000000E+00  0.00000000E+00  0.00000000E+00
  0.00000000E+00  0.00000000E+00  0.00000000E+00
  0.00000000E+00  0.00000000E+00  0.00000000E+00
  0.00000000E+00  0.00000000E+00  0.00000000E+00
  0.00000000E+00  0.00000000E+00  0.00000000E+00
  0.00000000E+00  0.00000000E+00  0.00000000E+00
  0.00000000E+00  0.00000000E+00  0.00000000E+00
  0.00000000E+00  0.00000000E+00  0.00000000E+00
  0.00000000E+00  0.00000000E+00  0.00000000E+00
  0.00000000E+00  0.00000000E+00  0.00000000E+00
  0.00000000E+00  0.00000000E+00  0.00000000E+00
