title                                   
    1.000000000000000     
     9.7553862407187761   -0.0392119323025788   -0.0140445681728461
    -0.0391754827346520    9.7353498615009446    0.0071214811888968
    -0.0093719513791438    0.0047795645153089    6.5269017127762856
   Hf   Nb   Ti   V    W 
     7     7     7     7     8
Direct
  0.4901292458683647  0.8351715183586197  0.7534058033993143
  0.6549947798824354  0.6535254163731484  0.0171601033703903
  0.8433873389287586  0.4793742348420556  0.7659994990602127
 -0.0072577808442614  0.6716910780307107  0.4836527540754181
  0.0008611679353688  0.0052825724087202  0.4923005206911660
  0.1744636018596135  0.8247702416298277  0.7595106883219593
  0.6640645496911989  0.6616492221364083  0.4897255266925456
  0.5048360121477673  0.1701060538002273  0.7478965044893280
  0.8323202833128351  0.8423917052177151  0.2177126592323925
  0.5046220970978454  0.1736091911236025  0.2524603824313543
  0.4851586359270373  0.4961089560578494  0.7448417138581011
  0.6731095481371833  0.0039474694787829  0.4950803102291180
  0.6677019278511284  0.0112060047076252 -0.0027715652282734
  0.3292101904600793  0.0101449547102230  0.4914098583727844
  0.3329299117463405  0.3312900565945963  0.0020932528209301
  0.1654721302425232  0.4992462138343260  0.7555874077257997
  0.1664987469618246  0.4927289084369395  0.2489041326011834
  0.0098364773615364  0.0164368390542340 -0.0014979186080072
  0.8346497482709359  0.8368991570813324  0.7756881500006674
  0.8317037086677426  0.1871045169233848  0.2429632473469764
  0.8443757618134802  0.4755652222064335  0.2403378649946609
  0.3390303066477846  0.6612922707432700  0.0239137248917449
  0.8330294095255575  0.1809016116024487  0.7425997076622313
  0.4766195353592941  0.4968885686969031  0.2639861337434008
  0.0193342503886011  0.3066271780262568 -0.0047863508512392
  0.3303835692765327  0.3323946908137201  0.5041657434287518
  0.6519071088272813  0.3319474347556053 -0.0009153657573016
  0.1694045576909433  0.1785401864583869  0.2494730934149543
  0.4911898710085216  0.8373981865075057  0.2495300815883447
  0.6605709653581222  0.3369487800928669  0.4977386144665175
  0.1737252570149458  0.8290537615637642  0.2385401602226727
  0.1726882663246969  0.1721096763098988  0.7496423125991518
  0.3329679070101761  0.6610352692868321  0.4851015279918883
  0.0062766117504016  0.6682158976610938  0.0155302117008705
  0.0103464595109872  0.3213419340506228  0.5017064770492985
  0.3294578409864178  0.0070550204240616  0.0113130319706927
 
  0.00000000E+00  0.00000000E+00  0.00000000E+00
  0.00000000E+00  0.00000000E+00  0.00000000E+00
  0.00000000E+00  0.00000000E+00  0.00000000E+00
  0.00000000E+00  0.00000000E+00  0.00000000E+00
  0.00000000E+00  0.00000000E+00  0.00000000E+00
  0.00000000E+00  0.00000000E+00  0.00000000E+00
  0.00000000E+00  0.00000000E+00  0.00000000E+00
  0.00000000E+00  0.00000000E+00  0.00000000E+00
  0.00000000E+00  0.00000000E+00  0.00000000E+00
  0.00000000E+00  0.00000000E+00  0.00000000E+00
  0.00000000E+00  0.00000000E+00  0.00000000E+00
  0.00000000E+00  0.00000000E+00  0.00000000E+00
  0.00000000E+00  0.00000000E+00  0.00000000E+00
  0.00000000E+00  0.00000000E+00  0.00000000E+00
  0.00000000E+00  0.00000000E+00  0.00000000E+00
  0.00000000E+00  0.00000000E+00  0.00000000E+00
  0.00000000E+00  0.00000000E+00  0.00000000E+00
  0.00000000E+00  0.00000000E+00  0.00000000E+00
  0.00000000E+00  0.00000000E+00  0.00000000E+00
  0.00000000E+00  0.00000000E+00  0.00000000E+00
  0.00000000E+00  0.00000000E+00  0.00000000E+00
  0.00000000E+00  0.00000000E+00  0.00000000E+00
  0.00000000E+00  0.00000000E+00  0.00000000E+00
  0.00000000E+00  0.00000000E+00  0.00000000E+00
  0.00000000E+00  0.00000000E+00  0.00000000E+00
  0.00000000E+00  0.00000000E+00  0.00000000E+00
  0.00000000E+00  0.00000000E+00  0.00000000E+00
  0.00000000E+00  0.00000000E+00  0.00000000E+00
  0.00000000E+00  0.00000000E+00  0.00000000E+00
  0.00000000E+00  0.00000000E+00  0.00000000E+00
  0.00000000E+00  0.00000000E+00  0.00000000E+00
  0.00000000E+00  0.00000000E+00  0.00000000E+00
  0.00000000E+00  0.00000000E+00  0.00000000E+00
  0.00000000E+00  0.00000000E+00  0.00000000E+00
  0.00000000E+00  0.00000000E+00  0.00000000E+00
  0.00000000E+00  0.00000000E+00  0.00000000E+00
