title                                   
    1.000000000000000     
     9.6351633146091213    0.0127902549366032   -0.0814978753326124
     0.0129771635278904    9.6860308759124756    0.0023531780831606
    -0.0542130186102826    0.0015145020527675    6.4448296199146435
   Mo   Ta   Ti   V    Zr
    15     3    11     3     4
Direct
  0.1708402726645711  0.4972600075662960  0.7472077881988203
  0.5018027688873794  0.4963547309539453  0.7473447312986282
  0.6674373840807361  0.6698846286446305  0.4976053474523894
  0.6651503874770832  0.3326681883070134  0.4965970895980409
  0.3307366311913368  0.3422109091506383  0.0049842058780219
  0.3313472564132844  0.3403580775508623  0.5000285162551884
 -0.0074812568436574 -0.0073643799473944  0.0033549307540256
  0.0052674491122944  0.3372036851757484  0.4891076182343695
  0.3340908714424889 -0.0047707696844802  0.0061679837685307
  0.8352405198106996  0.5001886103665947  0.2574154214720641
  0.8388585410390369  0.8307915895040694  0.7471082945294043
  0.1650603286405594  0.1685399196355668  0.2450912960331638
  0.5022211145667059  0.8209506651923922  0.2499114762279071
 -0.0066791531205597 -0.0095701369697559  0.4875357238110417
  0.4961135514685781  0.8271509081085103  0.7607013075372683
  0.0032446482002127  0.3417881229969515  0.0100126927759341
  0.3335336549085640  0.6661313943427349  0.0043891599522110
  0.8355345019209883  0.1650854448007658  0.2517018800110923
  0.4941820653873290  0.1827243376443004  0.2420177479271226
  0.5015064029937552  0.4924213691682079  0.2640404332683704
  0.6614159925411465 -0.0153739246214157 -0.0022263523918676
  0.6645653636279057  0.6729270298666915  0.0039320264776841
  0.4869299004187809  0.1797303420202723  0.7667991572591425
  0.0067362704928659  0.6643525036502225  0.0132960279368059
  0.0103813470535294  0.6671104347871304  0.4774177252186209
  0.1573532515275209  0.8389265867736622  0.7670137169103238
  0.6696576600606783  0.3454014297943374  0.0045759218420913
  0.8369607435266891  0.1712550710386083  0.7383703559033130
  0.3343870571243722  0.6649967293437313  0.5086360054427299
  0.1573695929707140  0.8433996633278037  0.2260887616090724
  0.8464944048779922  0.8380104484870521  0.2460220079600651
  0.1799766760492799  0.4903126672869831  0.2563105512043094
  0.8319283681703501  0.5039408444995818  0.7368478032542873
  0.6610116338497674 -0.0060012571996227  0.5043569561237197
  0.1620496642499085  0.1625589349934169  0.7486154286511819
  0.3347741332171118 -0.0115548065560549  0.4916202616149250
 
  0.00000000E+00  0.00000000E+00  0.00000000E+00
  0.00000000E+00  0.00000000E+00  0.00000000E+00
  0.00000000E+00  0.00000000E+00  0.00000000E+00
  0.00000000E+00  0.00000000E+00  0.00000000E+00
  0.00000000E+00  0.00000000E+00  0.00000000E+00
  0.00000000E+00  0.00000000E+00  0.00000000E+00
  0.00000000E+00  0.00000000E+00  0.00000000E+00
  0.00000000E+00  0.00000000E+00  0.00000000E+00
  0.00000000E+00  0.00000000E+00  0.00000000E+00
  0.00000000E+00  0.00000000E+00  0.00000000E+00
  0.00000000E+00  0.00000000E+00  0.00000000E+00
  0.00000000E+00  0.00000000E+00  0.00000000E+00
  0.00000000E+00  0.00000000E+00  0.00000000E+00
  0.00000000E+00  0.00000000E+00  0.00000000E+00
  0.00000000E+00  0.00000000E+00  0.00000000E+00
  0.00000000E+00  0.00000000E+00  0.00000000E+00
  0.00000000E+00  0.00000000E+00  0.00000000E+00
  0.00000000E+00  0.00000000E+00  0.00000000E+00
  0.00000000E+00  0.00000000E+00  0.00000000E+00
  0.00000000E+00  0.00000000E+00  0.00000000E+00
  0.00000000E+00  0.00000000E+00  0.00000000E+00
  0.00000000E+00  0.00000000E+00  0.00000000E+00
  0.00000000E+00  0.00000000E+00  0.00000000E+00
  0.00000000E+00  0.00000000E+00  0.00000000E+00
  0.00000000E+00  0.00000000E+00  0.00000000E+00
  0.00000000E+00  0.00000000E+00  0.00000000E+00
  0.00000000E+00  0.00000000E+00  0.00000000E+00
  0.00000000E+00  0.00000000E+00  0.00000000E+00
  0.00000000E+00  0.00000000E+00  0.00000000E+00
  0.00000000E+00  0.00000000E+00  0.00000000E+00
  0.00000000E+00  0.00000000E+00  0.00000000E+00
  0.00000000E+00  0.00000000E+00  0.00000000E+00
  0.00000000E+00  0.00000000E+00  0.00000000E+00
  0.00000000E+00  0.00000000E+00  0.00000000E+00
  0.00000000E+00  0.00000000E+00  0.00000000E+00
  0.00000000E+00  0.00000000E+00  0.00000000E+00
