title                                   
    1.000000000000000     
     9.8364186674918024   -0.0209786825987935    0.1190020280833957
    -0.0202563563369538    9.7445734987530610    0.0351148984451613
     0.0802840252941163    0.0237424470015146    6.5276390127359294
   Cr   Hf   Nb   V    Zr
     2    12     6    15     1
Direct
  0.1480331336122536  0.1558069432405809  0.7582680700290058
  0.5083822520517809  0.1688626797763274  0.7264996025189959
  0.3365667708204479  0.0077643192550994 -0.0103163661943460
  0.3320951800103684  0.0008006404723189  0.5063269906971504
  0.0134359065449834  0.3201378122431405  0.5315356021404419
  0.3276391979543577  0.3305299673957519 -0.0336989789880234
  0.6709887284810953  0.6834975867658234  0.4828712836901077
  0.5109550634946656  0.7974934984259723  0.8075058700837335
  0.8231701215936964  0.5060139004608531  0.7624687001771613
  0.6615632506512188 -0.0018177541939767  0.5134527253668594
  0.5056808299090451  0.5331293338905911  0.1845458746691978
  0.6486929256935915  0.3032455296577712 -0.0204588199477623
  0.3413379980734872  0.3319719315607527  0.4878929722222842
  0.3293346963473398  0.6630518105653855  0.5066443088367077
  0.1529736056898599  0.1670376161395508  0.2392590731931429
  0.1533025347301418  0.8346505657629016  0.2576998822119617
 -0.0005881926402592  0.6755297187626524  0.0014921776238240
 -0.0035054763439365  0.0049177442208012 -0.0094968660079940
  0.1633796213881185  0.5043788112273405  0.2366637838549973
  0.8310410327552215  0.1650729712353920  0.2554713750041912
  0.8479127242909352  0.8550800126373118  0.2563142525480464
  0.0109228248004582  0.3192238922029194 -0.0228796921915887
  0.8436589564728938  0.8475891384888495  0.7612882005783329
  0.7149833036505767  0.7070100873653211  0.0420282167782949
  0.2960029998007954  0.6635087720896908 -0.0145439853993673
  0.6700645868536778  0.0034181596311490  0.0124866073745807
  0.5136561580650079  0.4977607324802412  0.7380916441441828
  0.1462325626403646  0.5167558826532523  0.7582468794025566
  0.8359147654605105  0.1529364793169837  0.7529279273450370
  0.5126723468181585  0.1514153529079701  0.2539901783092987
  0.1504530093550628  0.8258375506887865  0.7510993264346307
  0.0109000521421020  0.6801448069066650  0.5153325677828383
  0.5088579773466169  0.8338687037335810  0.2195506262728536
 -0.0062097399317009 -0.0000995119974748  0.5144736702498653
  0.6509218328193145  0.3088433751323940  0.5172205788344223
  0.8385764585977469  0.4846309388973313  0.2597457403543774
 
  0.00000000E+00  0.00000000E+00  0.00000000E+00
  0.00000000E+00  0.00000000E+00  0.00000000E+00
  0.00000000E+00  0.00000000E+00  0.00000000E+00
  0.00000000E+00  0.00000000E+00  0.00000000E+00
  0.00000000E+00  0.00000000E+00  0.00000000E+00
  0.00000000E+00  0.00000000E+00  0.00000000E+00
  0.00000000E+00  0.00000000E+00  0.00000000E+00
  0.00000000E+00  0.00000000E+00  0.00000000E+00
  0.00000000E+00  0.00000000E+00  0.00000000E+00
  0.00000000E+00  0.00000000E+00  0.00000000E+00
  0.00000000E+00  0.00000000E+00  0.00000000E+00
  0.00000000E+00  0.00000000E+00  0.00000000E+00
  0.00000000E+00  0.00000000E+00  0.00000000E+00
  0.00000000E+00  0.00000000E+00  0.00000000E+00
  0.00000000E+00  0.00000000E+00  0.00000000E+00
  0.00000000E+00  0.00000000E+00  0.00000000E+00
  0.00000000E+00  0.00000000E+00  0.00000000E+00
  0.00000000E+00  0.00000000E+00  0.00000000E+00
  0.00000000E+00  0.00000000E+00  0.00000000E+00
  0.00000000E+00  0.00000000E+00  0.00000000E+00
  0.00000000E+00  0.00000000E+00  0.00000000E+00
  0.00000000E+00  0.00000000E+00  0.00000000E+00
  0.00000000E+00  0.00000000E+00  0.00000000E+00
  0.00000000E+00  0.00000000E+00  0.00000000E+00
  0.00000000E+00  0.00000000E+00  0.00000000E+00
  0.00000000E+00  0.00000000E+00  0.00000000E+00
  0.00000000E+00  0.00000000E+00  0.00000000E+00
  0.00000000E+00  0.00000000E+00  0.00000000E+00
  0.00000000E+00  0.00000000E+00  0.00000000E+00
  0.00000000E+00  0.00000000E+00  0.00000000E+00
  0.00000000E+00  0.00000000E+00  0.00000000E+00
  0.00000000E+00  0.00000000E+00  0.00000000E+00
  0.00000000E+00  0.00000000E+00  0.00000000E+00
  0.00000000E+00  0.00000000E+00  0.00000000E+00
  0.00000000E+00  0.00000000E+00  0.00000000E+00
  0.00000000E+00  0.00000000E+00  0.00000000E+00
