title                                   
    1.000000000000000     
     9.4070287875095495   -0.0164382668289580   -0.0018790378216254
    -0.0163642024822940    9.4384144923383015    0.0040512331794528
    -0.0012501400935800    0.0026989551059126    6.2762121073427481
   Cr   Mo   Ta   W 
     9     9     9     9
Direct
  0.6689513158035800  0.0046315499177102  0.4958376547091654
  0.5030773638476008  0.4967569432924012  0.2503133567609488
  0.8310366361454149  0.4984067423613310  0.7479591459104047
 -0.0033990089526990  0.3344596448074003  0.5018821103691373
 -0.0032567894850491 -0.0000279418633702  0.0024035058616934
  0.6684326129754016  0.0039683333680789  0.0043361024020370
 -0.0025398180503459 -0.0014862047022171  0.4959940606739384
  0.1673034886166894  0.4940610517814716  0.7473304363427038
  0.1627005985520849  0.8393026705992451  0.2503413632408065
  0.5050810757749972  0.8371677671372532  0.2498820162924252
  0.6677930720643368  0.3339472765840419  0.0004687274104008
  0.6689904197058856  0.3339255373011433  0.5001308968694486
  0.3350330458241349  0.3355148476800028  0.4993310663162281
  0.6683038769229482  0.6635081153492666  0.4980498056325917
  0.1634253784233096  0.8390711678884034  0.7509846470381490
  0.1661987714733271  0.4941226492592118  0.2545421058527180
  0.8306335219185694  0.4973807993493945  0.2549298808397457
  0.3325396929003302 -0.0020397632441106  0.0026736759085700
  0.3307073478639971  0.6638427775721955  0.0044216198518520
  0.0025997944954433  0.6635113740857458  0.5027199583196482
 -0.0037202291346391  0.3392795638169375 -0.0069445103952754
  0.5074812576277261  0.8388141898266551  0.7511897807133882
  0.1613612365612955  0.1646215496024810  0.7442391832165139
  0.3301624814267692  0.6647923147482971  0.4967288041431234
  0.8309734784943182  0.8443673618945698  0.7497623706425953
  0.1606896697886585  0.1609696922457121  0.2518588192477024
  0.0022259033393832  0.6659571845601335  0.0005824484212458
  0.8335171460066032  0.8430318492992640  0.2508698698575875
  0.5040836861530460  0.1653456122652166  0.2498051829693200
  0.3331981333646260 -0.0031398298764612  0.4959966260588994
  0.5034765347064282  0.4977120727694128  0.7491688155616644
  0.8336306792548162  0.1611305732844336  0.2527038236848708
  0.3346607879031534  0.3366325300920303  0.0001295098654311
  0.6683424469782072  0.6630239380261604  0.0043938285709967
  0.5031596629657183  0.1644067346911627  0.7498714151979180
  0.8331447277439331  0.1630293242293972  0.7451118956414079
 
  0.00000000E+00  0.00000000E+00  0.00000000E+00
  0.00000000E+00  0.00000000E+00  0.00000000E+00
  0.00000000E+00  0.00000000E+00  0.00000000E+00
  0.00000000E+00  0.00000000E+00  0.00000000E+00
  0.00000000E+00  0.00000000E+00  0.00000000E+00
  0.00000000E+00  0.00000000E+00  0.00000000E+00
  0.00000000E+00  0.00000000E+00  0.00000000E+00
  0.00000000E+00  0.00000000E+00  0.00000000E+00
  0.00000000E+00  0.00000000E+00  0.00000000E+00
  0.00000000E+00  0.00000000E+00  0.00000000E+00
  0.00000000E+00  0.00000000E+00  0.00000000E+00
  0.00000000E+00  0.00000000E+00  0.00000000E+00
  0.00000000E+00  0.00000000E+00  0.00000000E+00
  0.00000000E+00  0.00000000E+00  0.00000000E+00
  0.00000000E+00  0.00000000E+00  0.00000000E+00
  0.00000000E+00  0.00000000E+00  0.00000000E+00
  0.00000000E+00  0.00000000E+00  0.00000000E+00
  0.00000000E+00  0.00000000E+00  0.00000000E+00
  0.00000000E+00  0.00000000E+00  0.00000000E+00
  0.00000000E+00  0.00000000E+00  0.00000000E+00
  0.00000000E+00  0.00000000E+00  0.00000000E+00
  0.00000000E+00  0.00000000E+00  0.00000000E+00
  0.00000000E+00  0.00000000E+00  0.00000000E+00
  0.00000000E+00  0.00000000E+00  0.00000000E+00
  0.00000000E+00  0.00000000E+00  0.00000000E+00
  0.00000000E+00  0.00000000E+00  0.00000000E+00
  0.00000000E+00  0.00000000E+00  0.00000000E+00
  0.00000000E+00  0.00000000E+00  0.00000000E+00
  0.00000000E+00  0.00000000E+00  0.00000000E+00
  0.00000000E+00  0.00000000E+00  0.00000000E+00
  0.00000000E+00  0.00000000E+00  0.00000000E+00
  0.00000000E+00  0.00000000E+00  0.00000000E+00
  0.00000000E+00  0.00000000E+00  0.00000000E+00
  0.00000000E+00  0.00000000E+00  0.00000000E+00
  0.00000000E+00  0.00000000E+00  0.00000000E+00
  0.00000000E+00  0.00000000E+00  0.00000000E+00
