title                                   
    1.000000000000000     
    10.2225495470027905    0.0430810029407676    0.0229843594992222
     0.0432375481590099   10.1554334906643415    0.0024135138955938
     0.0153039886423713    0.0016105907499010    6.7778623869429504
   Hf   Nb   W    Zr
     9     9     9     9
Direct
  0.6609469791246662  0.3292588750061537  0.4999892645475201
  0.4998017846353876  0.5098614037463455  0.2426447000071027
  0.1732814682071300  0.4964590361464374  0.2353539702262684
  0.8138594523110104  0.8388005866392773  0.2810681085245684
  0.0033142189236476 -0.0044880351128689  0.5169544124002857
  0.6590589303543821  0.0092175624197689 -0.0072431777757550
  0.1772121085999279  0.1621732465870794  0.7660900873289115
  0.4962274429850143  0.8361209126862730  0.2602846484906569
  0.4956490022185522  0.8366971147942356  0.7346584899108607
  0.3176884795223308  0.6662009525789382 -0.0176248562080664
  0.8109245364541372  0.8320245470826053  0.7142659514087492
  0.1805644533484266  0.1586198958203001  0.2413500198614242
  0.8272073890838804  0.1730556279016636  0.7610630881683939
  0.3152523598424810  0.6556160051270525  0.5170483098743690
 -0.0030600336518087  0.3410316036115250 -0.0061519697633862
  0.8236426782826706  0.4935538693103249  0.7522462533950939
  0.1895603703855284  0.8384072393043076  0.7460440526022485
  0.3418633050644372  0.3274293938559651  0.0003782459250120
  0.3402486915549629  0.0126415127745889  0.4980134931586313
  0.3497762697051788  0.0116136588856231  0.0031110985369978
  0.1707963481754556  0.4955500865152227  0.7648548413296650
  0.8230472214856410  0.4930317975073744  0.2466033249563399
  0.6669892859660129  0.3306971454587215  0.0028522387260977
  0.6548338464152492  0.0207537829687154  0.5046260866954438
  0.6746030678014967  0.6499258805499918  0.4997533940971847
  0.4972440672444194  0.1623316599566545  0.7526286683351895
  0.5017153374412502  0.1643108808552076  0.2469510815194090
 -0.0024798229818050  0.3392180908641319  0.5078072139973898
  0.4994226979994358  0.5064687958307337  0.7580701670582295
 -0.0036966240728467  0.6641210458702754 -0.0067877883209880
  0.8350421414337741  0.1699640660861576  0.2428248337166348
  0.1849513214674676  0.8371072244900630  0.2518103404393062
  0.6875138441146069  0.6662316385584380 -0.0032633574853975
  0.3407241943822745  0.3271577572070647  0.5001792067286441
 -0.0040967903785856 -0.0138541808890660 -0.0146457082060559
  0.0003699765542092  0.6626893190047172  0.5061912657930209
 
  0.00000000E+00  0.00000000E+00  0.00000000E+00
  0.00000000E+00  0.00000000E+00  0.00000000E+00
  0.00000000E+00  0.00000000E+00  0.00000000E+00
  0.00000000E+00  0.00000000E+00  0.00000000E+00
  0.00000000E+00  0.00000000E+00  0.00000000E+00
  0.00000000E+00  0.00000000E+00  0.00000000E+00
  0.00000000E+00  0.00000000E+00  0.00000000E+00
  0.00000000E+00  0.00000000E+00  0.00000000E+00
  0.00000000E+00  0.00000000E+00  0.00000000E+00
  0.00000000E+00  0.00000000E+00  0.00000000E+00
  0.00000000E+00  0.00000000E+00  0.00000000E+00
  0.00000000E+00  0.00000000E+00  0.00000000E+00
  0.00000000E+00  0.00000000E+00  0.00000000E+00
  0.00000000E+00  0.00000000E+00  0.00000000E+00
  0.00000000E+00  0.00000000E+00  0.00000000E+00
  0.00000000E+00  0.00000000E+00  0.00000000E+00
  0.00000000E+00  0.00000000E+00  0.00000000E+00
  0.00000000E+00  0.00000000E+00  0.00000000E+00
  0.00000000E+00  0.00000000E+00  0.00000000E+00
  0.00000000E+00  0.00000000E+00  0.00000000E+00
  0.00000000E+00  0.00000000E+00  0.00000000E+00
  0.00000000E+00  0.00000000E+00  0.00000000E+00
  0.00000000E+00  0.00000000E+00  0.00000000E+00
  0.00000000E+00  0.00000000E+00  0.00000000E+00
  0.00000000E+00  0.00000000E+00  0.00000000E+00
  0.00000000E+00  0.00000000E+00  0.00000000E+00
  0.00000000E+00  0.00000000E+00  0.00000000E+00
  0.00000000E+00  0.00000000E+00  0.00000000E+00
  0.00000000E+00  0.00000000E+00  0.00000000E+00
  0.00000000E+00  0.00000000E+00  0.00000000E+00
  0.00000000E+00  0.00000000E+00  0.00000000E+00
  0.00000000E+00  0.00000000E+00  0.00000000E+00
  0.00000000E+00  0.00000000E+00  0.00000000E+00
  0.00000000E+00  0.00000000E+00  0.00000000E+00
  0.00000000E+00  0.00000000E+00  0.00000000E+00
  0.00000000E+00  0.00000000E+00  0.00000000E+00
