title                                   
    1.000000000000000     
     9.7320525312228447    0.2807306192884654   -0.0479853232587082
     0.2775541963434279    9.7716349895046068    0.0616577144029866
    -0.0309367921186969    0.0401033486040990    6.6285666815045632
   Cr   Hf   Nb   V    Zr
     8     7     7     7     7
Direct
  0.5243441622732873  0.1471297822053591  0.2599874239996930
  0.1650202011342128  0.4902969387555488  0.2619628458859439
  0.6591454108430151  0.0140578532546734  0.4531263230889644
  0.8420945005863875  0.4875989442344395  0.7625046691454408
  0.1538978854155335  0.4924475832357036  0.7531780551062532
  0.6802091302672005  0.3281801302054131 -0.0338805261895750
  0.8240183226286028  0.1898042186699865  0.7649028380236108
  0.1518222196857451  0.8346572908198807  0.7646406572656688
  0.5140169215401696  0.4737786846887896  0.2421129541436768
  0.3383460214107597 -0.0272853803848029  0.5117710636625384
  0.5104876066828146  0.1670510386399225  0.7194268395969841
  0.8329013470176984  0.1786323977529793  0.2339397672647968
  0.1539002279635003  0.1842131390118710  0.2620101047772281
  0.6725045529164413  0.6537379640251827  0.5345801145013661
  0.3328821215516550 -0.0074793593015509 -0.0093054519835832
 -0.0004476704279852 -0.0046171304434543  0.5031520813779353
  0.8301424318584498  0.8475653746026565  0.2436277149256076
  0.6865059269313455  0.3307577688854202  0.5232564096294481
  0.0033242813318867 -0.0015355072602018 -0.0068772094352659
  0.0070470474261280  0.6682553078369157 -0.0095366750026482
  0.3235013648982724  0.6593227442809986 -0.0049098970934542
  0.1655268087470626  0.8310966331956910  0.2477298011675000
  0.6715772804696764  0.6476792642779626 -0.0393079868450433
  0.5094054563635204  0.8140561939019921  0.7920251345359425
  0.3049651464842817  0.3590482527319752  0.5077439258559930
 -0.0023949682055483  0.3638537671557379  0.5222262325430929
  0.5234295713080497  0.4826645223609563  0.7782634914624489
  0.6479578805077556  0.0207377368184662  0.0241278480324201
 -0.0045760703157604  0.3563677257591503 -0.0355611909006569
  0.0040207224207497  0.6686128578143620  0.5115343621856757
  0.5195947808138049  0.8121780860342392  0.2311199083348621
  0.3278052605380288  0.3388518672233908 -0.0077222272951702
  0.1521053929453776  0.1763193878536760  0.7295358868554647
  0.3334060119582807  0.6496528711456245  0.5218550987382886
  0.8368332288371872  0.5003453611864092  0.2311100858089725
  0.8046794831924110  0.8719656888246345  0.7556495268295812
 
  0.00000000E+00  0.00000000E+00  0.00000000E+00
  0.00000000E+00  0.00000000E+00  0.00000000E+00
  0.00000000E+00  0.00000000E+00  0.00000000E+00
  0.00000000E+00  0.00000000E+00  0.00000000E+00
  0.00000000E+00  0.00000000E+00  0.00000000E+00
  0.00000000E+00  0.00000000E+00  0.00000000E+00
  0.00000000E+00  0.00000000E+00  0.00000000E+00
  0.00000000E+00  0.00000000E+00  0.00000000E+00
  0.00000000E+00  0.00000000E+00  0.00000000E+00
  0.00000000E+00  0.00000000E+00  0.00000000E+00
  0.00000000E+00  0.00000000E+00  0.00000000E+00
  0.00000000E+00  0.00000000E+00  0.00000000E+00
  0.00000000E+00  0.00000000E+00  0.00000000E+00
  0.00000000E+00  0.00000000E+00  0.00000000E+00
  0.00000000E+00  0.00000000E+00  0.00000000E+00
  0.00000000E+00  0.00000000E+00  0.00000000E+00
  0.00000000E+00  0.00000000E+00  0.00000000E+00
  0.00000000E+00  0.00000000E+00  0.00000000E+00
  0.00000000E+00  0.00000000E+00  0.00000000E+00
  0.00000000E+00  0.00000000E+00  0.00000000E+00
  0.00000000E+00  0.00000000E+00  0.00000000E+00
  0.00000000E+00  0.00000000E+00  0.00000000E+00
  0.00000000E+00  0.00000000E+00  0.00000000E+00
  0.00000000E+00  0.00000000E+00  0.00000000E+00
  0.00000000E+00  0.00000000E+00  0.00000000E+00
  0.00000000E+00  0.00000000E+00  0.00000000E+00
  0.00000000E+00  0.00000000E+00  0.00000000E+00
  0.00000000E+00  0.00000000E+00  0.00000000E+00
  0.00000000E+00  0.00000000E+00  0.00000000E+00
  0.00000000E+00  0.00000000E+00  0.00000000E+00
  0.00000000E+00  0.00000000E+00  0.00000000E+00
  0.00000000E+00  0.00000000E+00  0.00000000E+00
  0.00000000E+00  0.00000000E+00  0.00000000E+00
  0.00000000E+00  0.00000000E+00  0.00000000E+00
  0.00000000E+00  0.00000000E+00  0.00000000E+00
  0.00000000E+00  0.00000000E+00  0.00000000E+00
