title                                   
    1.000000000000000     
     9.8487455320483885    0.0196193638917067   -0.0562756008729510
     0.0199755836567340    9.9878743027855013    0.0432996304501995
    -0.0374876112976598    0.0293967340774307    6.6486830031248951
   Hf   Mo   Ti   V    Zr
     7     8     7     7     7
Direct
  0.8257702931839851  0.1773816775527101  0.2477496725207935
  0.1537371595010015  0.1592604561977803  0.2691836877732958
  0.6798600554043390  0.6692929340069168  0.5018631334717039
  0.3313880000844103 -0.0044612234076842  0.0089068460441273
  0.1823222973889079  0.4869762715177573  0.7218082612552493
  0.5135008431105127  0.4916134195962767  0.2343145881569137
  0.5048996030941381  0.1683283661425428  0.7313994713945012
  0.6841653120217714  0.6679069619123226 -0.0132940552558999
 -0.0014424513916475 -0.0093948559578581  0.0002325571207969
  0.1668355687067556  0.1620676055168309  0.7432878330611131
  0.0001314982115797  0.3404509633392481  0.4984882622268686
  0.3364519505976694  0.3249665406038155  0.4980527396536851
  0.8368099361261309  0.8331868049196106  0.2276520720917478
 -0.0017440472423675 -0.0073537469645917  0.5101932682594383
  0.3213003265975386 -0.0021034511308277  0.5105511009579043
  0.5028400336636965  0.8222867217636125  0.7745146238451549
  0.5033987560815835  0.5031261988907121  0.7627913526734078
  0.6807982640505984  0.3582289012447216  0.5313367442874467
  0.5112201591075312  0.8078036692010049  0.2060846293596554
 -0.0054981199014561  0.6790880222746990 -0.0090876621246025
  0.6657402313887811 -0.0095875116140893  0.0130184489029075
  0.8213759233676698  0.4979523284506726  0.2265292400456790
  0.8484591186817831  0.8446886357396607  0.7553312323030149
  0.1492975330981476  0.8621824802679631  0.2697026854604262
  0.1710803393121905  0.4710029623159858  0.2904271163722996
  0.6796428530650761  0.3494101923146490 -0.0413870829199229
  0.4843370515615022  0.1606167869156875  0.2937881451120301
  0.1496046975583986  0.8568823571900954  0.7325237075939656
  0.8283517419795154  0.5074998076745805  0.7713919518749728
  0.6613695550427683 -0.0239177391391035  0.4802322907629006
  0.0078302062744885  0.3544236382204360  0.0014511741809921
 -0.0005297771331816  0.6728296254451015  0.4895272410830231
  0.2984080423190456  0.6676779366508727  0.0146395473044294
  0.8403346933208831  0.1630354445692826  0.7533551094062995
  0.3352812550698068  0.3121020818317774  0.0108407702045266
  0.3326710966964450  0.6845487359468282  0.4825992955391541
 
  0.00000000E+00  0.00000000E+00  0.00000000E+00
  0.00000000E+00  0.00000000E+00  0.00000000E+00
  0.00000000E+00  0.00000000E+00  0.00000000E+00
  0.00000000E+00  0.00000000E+00  0.00000000E+00
  0.00000000E+00  0.00000000E+00  0.00000000E+00
  0.00000000E+00  0.00000000E+00  0.00000000E+00
  0.00000000E+00  0.00000000E+00  0.00000000E+00
  0.00000000E+00  0.00000000E+00  0.00000000E+00
  0.00000000E+00  0.00000000E+00  0.00000000E+00
  0.00000000E+00  0.00000000E+00  0.00000000E+00
  0.00000000E+00  0.00000000E+00  0.00000000E+00
  0.00000000E+00  0.00000000E+00  0.00000000E+00
  0.00000000E+00  0.00000000E+00  0.00000000E+00
  0.00000000E+00  0.00000000E+00  0.00000000E+00
  0.00000000E+00  0.00000000E+00  0.00000000E+00
  0.00000000E+00  0.00000000E+00  0.00000000E+00
  0.00000000E+00  0.00000000E+00  0.00000000E+00
  0.00000000E+00  0.00000000E+00  0.00000000E+00
  0.00000000E+00  0.00000000E+00  0.00000000E+00
  0.00000000E+00  0.00000000E+00  0.00000000E+00
  0.00000000E+00  0.00000000E+00  0.00000000E+00
  0.00000000E+00  0.00000000E+00  0.00000000E+00
  0.00000000E+00  0.00000000E+00  0.00000000E+00
  0.00000000E+00  0.00000000E+00  0.00000000E+00
  0.00000000E+00  0.00000000E+00  0.00000000E+00
  0.00000000E+00  0.00000000E+00  0.00000000E+00
  0.00000000E+00  0.00000000E+00  0.00000000E+00
  0.00000000E+00  0.00000000E+00  0.00000000E+00
  0.00000000E+00  0.00000000E+00  0.00000000E+00
  0.00000000E+00  0.00000000E+00  0.00000000E+00
  0.00000000E+00  0.00000000E+00  0.00000000E+00
  0.00000000E+00  0.00000000E+00  0.00000000E+00
  0.00000000E+00  0.00000000E+00  0.00000000E+00
  0.00000000E+00  0.00000000E+00  0.00000000E+00
  0.00000000E+00  0.00000000E+00  0.00000000E+00
  0.00000000E+00  0.00000000E+00  0.00000000E+00
