title                                   
    1.000000000000000     
     9.4603422362182634   -0.0049930569909921   -0.0003059317071867
    -0.0049961265053178    9.4525985260227667    0.0008996146410552
    -0.0002036256498958    0.0005989938363294    6.3091907760427324
   Cr   Mo   Ta   W 
     4    19     3    10
Direct
  0.1687234071776511  0.1680556191911521  0.7496689869296060
  0.6645690333153513  0.3338359023851276  0.5008986989530960
  0.4995227048241748  0.4970657510902545  0.7471470827991011
 -0.0009963716146964  0.3327341129994013  0.4998876702002470
  0.4989793285268077  0.8338102219416165  0.7488501723926877
 -0.0002388666325047  0.6650878674536481  0.5005737860741289
  0.3349339773474009  0.6636665590423205  0.5028814173825947
  0.8332787502939450  0.8334323085940634  0.2503909301608684
  0.6665985181911942  0.0021706381414434  0.5005533263005147
  0.8333044606808018  0.4960180921451443  0.2564387497180793
  0.8320096811615099  0.4959118037833732  0.7424054275230566
  0.3326207283511813  0.0028008330997386  0.5023863898349558
  0.6661817807516204  0.0007426736473886 -0.0003712641969474
  0.1682567055837608  0.8330462191938064  0.7509601201191863
  0.5004810985255759  0.1701519641375502  0.7485430115683558
  0.3323245727479982  0.0023504757573436 -0.0024785438637113
  0.6654419328013819  0.3348599898601132 -0.0032634520751532
  0.5003547552134678  0.4967575707163248  0.2547181487903530
  0.1672662435306217  0.4980481918127905  0.7468649066340890
  0.8332916065618091  0.8333953614867258  0.7494966992981555
  0.1680875547514943  0.1688718039801489  0.2522510604213470
  0.3336818886543333  0.3333312312066865 -0.0035925213639246
  0.6652988927466098  0.6622820436325716  0.5015616911225645
  0.0019511371018192  0.3322388593363895 -0.0042890489704767
  0.6654550980963070  0.6634554032002772 -0.0025814077119670
  0.0022576628730245  0.0031536120136130  0.5029105571714906
  0.3340957889398413  0.3332061425989192  0.5051819561786791
  0.0013426640825784  0.0026929797472669 -0.0014081130671860
  0.1686586451788465  0.8321809630930090  0.2492602389087609
  0.1668989381689975  0.4990959670099610  0.2540524089926506
  0.8303202749714265  0.1709734915291211  0.2541116704087535
 -0.0005059644002297  0.6653182344804430 -0.0005177327726338
  0.5012854710237005  0.1689553941892033  0.2518158280565229
  0.3350861370825600  0.6646205994503629 -0.0021629025248211
  0.8306763202472389  0.1709416306722092  0.7450542853612719
  0.4985054431423993  0.8347394873804906  0.2517997652457023
 
  0.00000000E+00  0.00000000E+00  0.00000000E+00
  0.00000000E+00  0.00000000E+00  0.00000000E+00
  0.00000000E+00  0.00000000E+00  0.00000000E+00
  0.00000000E+00  0.00000000E+00  0.00000000E+00
  0.00000000E+00  0.00000000E+00  0.00000000E+00
  0.00000000E+00  0.00000000E+00  0.00000000E+00
  0.00000000E+00  0.00000000E+00  0.00000000E+00
  0.00000000E+00  0.00000000E+00  0.00000000E+00
  0.00000000E+00  0.00000000E+00  0.00000000E+00
  0.00000000E+00  0.00000000E+00  0.00000000E+00
  0.00000000E+00  0.00000000E+00  0.00000000E+00
  0.00000000E+00  0.00000000E+00  0.00000000E+00
  0.00000000E+00  0.00000000E+00  0.00000000E+00
  0.00000000E+00  0.00000000E+00  0.00000000E+00
  0.00000000E+00  0.00000000E+00  0.00000000E+00
  0.00000000E+00  0.00000000E+00  0.00000000E+00
  0.00000000E+00  0.00000000E+00  0.00000000E+00
  0.00000000E+00  0.00000000E+00  0.00000000E+00
  0.00000000E+00  0.00000000E+00  0.00000000E+00
  0.00000000E+00  0.00000000E+00  0.00000000E+00
  0.00000000E+00  0.00000000E+00  0.00000000E+00
  0.00000000E+00  0.00000000E+00  0.00000000E+00
  0.00000000E+00  0.00000000E+00  0.00000000E+00
  0.00000000E+00  0.00000000E+00  0.00000000E+00
  0.00000000E+00  0.00000000E+00  0.00000000E+00
  0.00000000E+00  0.00000000E+00  0.00000000E+00
  0.00000000E+00  0.00000000E+00  0.00000000E+00
  0.00000000E+00  0.00000000E+00  0.00000000E+00
  0.00000000E+00  0.00000000E+00  0.00000000E+00
  0.00000000E+00  0.00000000E+00  0.00000000E+00
  0.00000000E+00  0.00000000E+00  0.00000000E+00
  0.00000000E+00  0.00000000E+00  0.00000000E+00
  0.00000000E+00  0.00000000E+00  0.00000000E+00
  0.00000000E+00  0.00000000E+00  0.00000000E+00
  0.00000000E+00  0.00000000E+00  0.00000000E+00
  0.00000000E+00  0.00000000E+00  0.00000000E+00
