title                                   
    1.000000000000000     
     9.8467332013660034    0.0298758837125661    0.0018426331332782
     0.0298436056149333    9.8785944014793046   -0.0478769112560979
     0.0012083743552917   -0.0319465529448814    6.5628633192030295
   Hf   Mo   Nb   W 
     7     4    14    11
Direct
 -0.0052864449439065  0.3328746529454372  0.5009969769902275
  0.4955854000450823  0.5016205552355754  0.2359968756877561
  0.6739064460618550  0.3329957234863103  0.5021541809972906
  0.8327670522029592  0.8359800688574324  0.7475050123190606
  0.3345881379542566  0.3248046111184559  0.5095753929680241
  0.8345020344873740  0.8340211740584249  0.2506298981120371
  0.1723933661796483  0.5076449261123336  0.2409592572653319
  0.4952417573329504  0.8324264552367008  0.7497289632175489
  0.6724579992927903  0.3305477686826178 -0.0034633787508218
  0.6611943948131717  0.0056539643163639  0.4992955959793682
  0.3340001173909778  0.3252706411572449 -0.0063863469845466
  0.0050488223083526  0.0067784144743709  0.4971946693397836
  0.8350744921462766  0.5102442256231021  0.2396154075496870
  0.1691074069518121  0.1593191518946473  0.7615087883559890
  0.6640460121446143  0.6608702479447962  0.5053341049460260
  0.5003320665409752  0.5041070427437075  0.7603940766392616
  0.6588248200107513  0.0017575760304460  0.0028744719564355
  0.5001225405152593  0.1587317011342435  0.2453073800122392
  0.1691051084566281  0.1591266067112143  0.2436067259909061
  0.1669385430275369  0.8338667648404527  0.7491381315717349
  0.5006634783612013  0.1591153408462021  0.7593125550161265
  0.1670682204271424  0.5100704242645123  0.7562999210358348
  0.8303135890139819  0.1608346435904915  0.7582688743895987
  0.4966552422947447  0.8314900777569098  0.2522294263024861
 -0.0057648015663608  0.3324486494140554 -0.0021833843436144
  0.6631702959013740  0.6653448957504320 -0.0100104549898849
  0.0032352028965918  0.6652504075320544  0.5011307550222176
  0.3325781079969497 -0.0063490966803337  0.0032412587698556
  0.0028433882041126  0.6679564712128904 -0.0056118520138666
  0.3325105320042315 -0.0042101953902625  0.5011544775055299
  0.3343152104449391  0.6754891053762426  0.5053527873215722
  0.3334131561614191  0.6770776809768227 -0.0076712942894729
  0.1675088813391696  0.8318051132454798  0.2499717710690532
  0.0048703083694328  0.0049832705396349  0.0068842749217162
  0.8345462135809647  0.5111461901071521  0.7562505537123454
  0.8321229016507398  0.1589047488538392  0.2434141464071633
 
  0.00000000E+00  0.00000000E+00  0.00000000E+00
  0.00000000E+00  0.00000000E+00  0.00000000E+00
  0.00000000E+00  0.00000000E+00  0.00000000E+00
  0.00000000E+00  0.00000000E+00  0.00000000E+00
  0.00000000E+00  0.00000000E+00  0.00000000E+00
  0.00000000E+00  0.00000000E+00  0.00000000E+00
  0.00000000E+00  0.00000000E+00  0.00000000E+00
  0.00000000E+00  0.00000000E+00  0.00000000E+00
  0.00000000E+00  0.00000000E+00  0.00000000E+00
  0.00000000E+00  0.00000000E+00  0.00000000E+00
  0.00000000E+00  0.00000000E+00  0.00000000E+00
  0.00000000E+00  0.00000000E+00  0.00000000E+00
  0.00000000E+00  0.00000000E+00  0.00000000E+00
  0.00000000E+00  0.00000000E+00  0.00000000E+00
  0.00000000E+00  0.00000000E+00  0.00000000E+00
  0.00000000E+00  0.00000000E+00  0.00000000E+00
  0.00000000E+00  0.00000000E+00  0.00000000E+00
  0.00000000E+00  0.00000000E+00  0.00000000E+00
  0.00000000E+00  0.00000000E+00  0.00000000E+00
  0.00000000E+00  0.00000000E+00  0.00000000E+00
  0.00000000E+00  0.00000000E+00  0.00000000E+00
  0.00000000E+00  0.00000000E+00  0.00000000E+00
  0.00000000E+00  0.00000000E+00  0.00000000E+00
  0.00000000E+00  0.00000000E+00  0.00000000E+00
  0.00000000E+00  0.00000000E+00  0.00000000E+00
  0.00000000E+00  0.00000000E+00  0.00000000E+00
  0.00000000E+00  0.00000000E+00  0.00000000E+00
  0.00000000E+00  0.00000000E+00  0.00000000E+00
  0.00000000E+00  0.00000000E+00  0.00000000E+00
  0.00000000E+00  0.00000000E+00  0.00000000E+00
  0.00000000E+00  0.00000000E+00  0.00000000E+00
  0.00000000E+00  0.00000000E+00  0.00000000E+00
  0.00000000E+00  0.00000000E+00  0.00000000E+00
  0.00000000E+00  0.00000000E+00  0.00000000E+00
  0.00000000E+00  0.00000000E+00  0.00000000E+00
  0.00000000E+00  0.00000000E+00  0.00000000E+00
