title                                   
    1.000000000000000     
     9.2207024897735561   -0.0334953769065539   -0.0211271753592845
    -0.0334259585672778    9.2636621014696985   -0.0023576537702464
    -0.0140870073442654   -0.0015418025982930    6.1303291546659668
   Cr   Mo   Ti   V    W 
     8     7     7     7     7
Direct
  0.6702940237181384  0.0094452479032672  0.0031522985497249
  0.1631276133353482  0.1776080761207265  0.2478960640719918
  0.5082891522516096  0.1672456600705626  0.2515933036871822
  0.3342790547037934  0.3273317362898301  0.0032381159140233
 -0.0046733156819349  0.3305687662491683 -0.0065308359664621
  0.6704173104541683  0.3281533827399286  0.5049560350551393
 -0.0027742137057079  0.3316332222851114  0.5014369732335960
  0.8328533829896818  0.1744836559960635  0.7503379278112282
  0.3300072854195645  0.6640680746215274  0.0020592015397583
 -0.0003913677798791  0.0033148828285096  0.4973116611459076
  0.5033939484610541  0.4964418737279729  0.7560900537778342
  0.5061934786678680  0.1691056036986385  0.7595099038801564
  0.8373008650706049  0.4944754972639104  0.2472288137508855
  0.5016188540025400  0.4948644079629725  0.2469889394589800
  0.1593079944488026  0.4990905961760939  0.7491373957004875
  0.5022310780273200  0.8335182904644317  0.7574689067368749
  0.1605941612364201  0.4940143533770306  0.2406895469299023
  0.5029315703041461  0.8347043157367360  0.2478169448528391
  0.0003706644640280  0.0066524781130119 -0.0006612771961196
  0.3378513925170931  0.3296018963442802  0.4942866579310144
  0.3283768133547774  0.0142259682249905  0.0143613635605344
  0.1650509433894596  0.8322111228788135  0.7461972127325199
  0.6715799795804585  0.6573801786656395 -0.0021070210656826
  0.6682923991602688  0.3310531368593894 -0.0006576109106688
 -0.0038985981593145  0.6636295660145866  0.4972992522594916
  0.1655967036546067  0.8264603170892358  0.2527793567490884
 -0.0087372749535385  0.6659094015366652 -0.0068821174587130
  0.8351657358027630  0.4912408798790607  0.7471123432111172
  0.8313604543060752  0.8316978377745097  0.7498058245650058
  0.3317428486640500  0.6615899913306977  0.4987876288872982
  0.3339673570781385  0.0109680975559464  0.4938661060586858
  0.6723361319259407  0.6610539963314753  0.5035539522602396
  0.8317625784283490  0.8330819505319011  0.2452256798226786
  0.6697308317029496  0.0054403802324964  0.5056682363245470
  0.8329448945837853  0.1720132258538648  0.2506471171607432
  0.1615052685765707  0.1757219312709512  0.7503360449781700
 
  0.00000000E+00  0.00000000E+00  0.00000000E+00
  0.00000000E+00  0.00000000E+00  0.00000000E+00
  0.00000000E+00  0.00000000E+00  0.00000000E+00
  0.00000000E+00  0.00000000E+00  0.00000000E+00
  0.00000000E+00  0.00000000E+00  0.00000000E+00
  0.00000000E+00  0.00000000E+00  0.00000000E+00
  0.00000000E+00  0.00000000E+00  0.00000000E+00
  0.00000000E+00  0.00000000E+00  0.00000000E+00
  0.00000000E+00  0.00000000E+00  0.00000000E+00
  0.00000000E+00  0.00000000E+00  0.00000000E+00
  0.00000000E+00  0.00000000E+00  0.00000000E+00
  0.00000000E+00  0.00000000E+00  0.00000000E+00
  0.00000000E+00  0.00000000E+00  0.00000000E+00
  0.00000000E+00  0.00000000E+00  0.00000000E+00
  0.00000000E+00  0.00000000E+00  0.00000000E+00
  0.00000000E+00  0.00000000E+00  0.00000000E+00
  0.00000000E+00  0.00000000E+00  0.00000000E+00
  0.00000000E+00  0.00000000E+00  0.00000000E+00
  0.00000000E+00  0.00000000E+00  0.00000000E+00
  0.00000000E+00  0.00000000E+00  0.00000000E+00
  0.00000000E+00  0.00000000E+00  0.00000000E+00
  0.00000000E+00  0.00000000E+00  0.00000000E+00
  0.00000000E+00  0.00000000E+00  0.00000000E+00
  0.00000000E+00  0.00000000E+00  0.00000000E+00
  0.00000000E+00  0.00000000E+00  0.00000000E+00
  0.00000000E+00  0.00000000E+00  0.00000000E+00
  0.00000000E+00  0.00000000E+00  0.00000000E+00
  0.00000000E+00  0.00000000E+00  0.00000000E+00
  0.00000000E+00  0.00000000E+00  0.00000000E+00
  0.00000000E+00  0.00000000E+00  0.00000000E+00
  0.00000000E+00  0.00000000E+00  0.00000000E+00
  0.00000000E+00  0.00000000E+00  0.00000000E+00
  0.00000000E+00  0.00000000E+00  0.00000000E+00
  0.00000000E+00  0.00000000E+00  0.00000000E+00
  0.00000000E+00  0.00000000E+00  0.00000000E+00
  0.00000000E+00  0.00000000E+00  0.00000000E+00
