title                                   
    1.000000000000000     
     9.2242278911420996    0.0144137279629247    0.0169519059247981
     0.0145043846358347    9.2509293036612110   -0.0130605140984888
     0.0111269847343247   -0.0088114106517267    6.2390179851347582
   Cr   Nb   Ti   V 
     3     4    10    19
Direct
  0.5114824652428831  0.8324484538185309  0.7334628946546355
  0.1640705923750129  0.1645225342361762  0.2388047498966312
  0.5015658765946550  0.1598596557000849  0.2500250443275109
  0.6689630241105621 -0.0054482846698743  0.0000183685018477
  0.3328845821468125  0.3359077185921330  0.0075089306812449
  0.4970002179312630  0.1640208942920053  0.7499014004665786
  0.1610402141940921  0.8388859075373860  0.7503567397385329
  0.3272407520852199  0.0095705301912643  0.4851925691086529
  0.3398347764409946  0.6646671878841173 -0.0113897566829958
  0.3291847556433314  0.3316282108586716  0.4862589479906442
  0.3334935897058261  0.6563942720598540  0.5071415284775210
  0.8350164115179470  0.5089206483274448  0.2588813433746749
 -0.0029042618868783  0.0089057080858378  0.0140740988008349
  0.6750945648034289  0.3302567934858943  0.0046652199577444
  0.6635364466043514  0.6653512476202117 -0.0160828896789050
  0.0116950405768743  0.3295364564867058  0.4955366283567251
  0.5000459914142908  0.8331750212049337  0.2598284544576448
  0.8354055962921797  0.8291888387964372  0.7346839428408604
  0.0007230485267720  0.6710632766465290  0.5024095763464252
  0.8274034711654781  0.1648098802810493  0.2773110301694389
 -0.0018387592387421  0.6727137391670435 -0.0000571271100139
  0.6655631290729994  0.3264090494815032  0.4953026309147335
  0.6656556731306648 -0.0036839858683587  0.5023589903622193
  0.6667280643794796  0.6712717048780130  0.5172532118161566
  0.8340661363646046  0.8281503081272699  0.2690803299870622
  0.1591658203497966  0.8294449991061001  0.2490245545740874
 -0.0012589367691811  0.0052472579755533  0.4912803405644898
  0.5169425918894484  0.5005568384615918  0.2701677498363847
  0.1645952857342735  0.1700538842402584  0.7618679114107203
  0.8354595668088939  0.1622892839405383  0.7293540149130132
  0.1508949867961019  0.5134988687332506  0.2315944005376381
  0.1462976072744537  0.4993771378305251  0.7680200805794064
 -0.0008896018094975  0.3287238968450783  0.0002668990988498
  0.5214197585928748  0.4902815198866940  0.7231812761225200
  0.8423958466855411  0.5051036736481327  0.7468307837352010
  0.3220256752531931  0.0068968721114124  0.0158851308712826
 
  0.00000000E+00  0.00000000E+00  0.00000000E+00
  0.00000000E+00  0.00000000E+00  0.00000000E+00
  0.00000000E+00  0.00000000E+00  0.00000000E+00
  0.00000000E+00  0.00000000E+00  0.00000000E+00
  0.00000000E+00  0.00000000E+00  0.00000000E+00
  0.00000000E+00  0.00000000E+00  0.00000000E+00
  0.00000000E+00  0.00000000E+00  0.00000000E+00
  0.00000000E+00  0.00000000E+00  0.00000000E+00
  0.00000000E+00  0.00000000E+00  0.00000000E+00
  0.00000000E+00  0.00000000E+00  0.00000000E+00
  0.00000000E+00  0.00000000E+00  0.00000000E+00
  0.00000000E+00  0.00000000E+00  0.00000000E+00
  0.00000000E+00  0.00000000E+00  0.00000000E+00
  0.00000000E+00  0.00000000E+00  0.00000000E+00
  0.00000000E+00  0.00000000E+00  0.00000000E+00
  0.00000000E+00  0.00000000E+00  0.00000000E+00
  0.00000000E+00  0.00000000E+00  0.00000000E+00
  0.00000000E+00  0.00000000E+00  0.00000000E+00
  0.00000000E+00  0.00000000E+00  0.00000000E+00
  0.00000000E+00  0.00000000E+00  0.00000000E+00
  0.00000000E+00  0.00000000E+00  0.00000000E+00
  0.00000000E+00  0.00000000E+00  0.00000000E+00
  0.00000000E+00  0.00000000E+00  0.00000000E+00
  0.00000000E+00  0.00000000E+00  0.00000000E+00
  0.00000000E+00  0.00000000E+00  0.00000000E+00
  0.00000000E+00  0.00000000E+00  0.00000000E+00
  0.00000000E+00  0.00000000E+00  0.00000000E+00
  0.00000000E+00  0.00000000E+00  0.00000000E+00
  0.00000000E+00  0.00000000E+00  0.00000000E+00
  0.00000000E+00  0.00000000E+00  0.00000000E+00
  0.00000000E+00  0.00000000E+00  0.00000000E+00
  0.00000000E+00  0.00000000E+00  0.00000000E+00
  0.00000000E+00  0.00000000E+00  0.00000000E+00
  0.00000000E+00  0.00000000E+00  0.00000000E+00
  0.00000000E+00  0.00000000E+00  0.00000000E+00
  0.00000000E+00  0.00000000E+00  0.00000000E+00
