title                                   
    1.000000000000000     
     9.9134424611251752   -0.0282141891719131   -0.0593043700910553
    -0.0280915028430781    9.8811277611537172    0.0346107779763534
    -0.0394809260960101    0.0230794371886854    6.6017040702838381
   Hf   Mo   Ta   Zr
    10    19     4     3
Direct
  0.6699079238907631  0.6689149248897602  0.4940705798683474
  0.8232807251354425  0.1632868684392380  0.2322021605273770
  0.4920920950643987  0.4994490109651075  0.7597199307306098
  0.3365071071598616 -0.0031900011563346  0.4853946182956096
  0.1797742539190738  0.1714049423402526  0.7549117567380402
  0.5026964860986609  0.8264386983774968  0.7644678288443415
 -0.0006355285879001  0.3411886951807531  0.4985571180230723
  0.0012423266608687  0.3416283329291457 -0.0109584900886342
  0.0034271864518048  0.0016648285218293  0.4868539831599918
  0.3342157704837772 -0.0064403171419840  0.0268486617935163
  0.1764260903397668  0.5035937426226843  0.2549070178827658
  0.1642109600734424  0.8225525226018926  0.2562097456058663
 -0.0073240951916225  0.6674997126839749  0.4903935727980451
  0.8307725945260044  0.8398140960835000  0.2418504952513114
  0.3310979209948934  0.3356174221490980  0.4983387240403819
  0.5058881113451310  0.1727634751286840  0.7563735106630055
  0.3278710354459261  0.6640838284295436  0.4942270216085469
 -0.0027685257762035 -0.0022157457076857  0.0004691567565526
  0.8272069942422964  0.5025261410884191  0.7479958027057940
  0.6703103874987295 -0.0039766915739556  0.5024562164469984
  0.5041127294600819  0.8282391235006705  0.2521999852718936
  0.6655663882313859 -0.0021469971755569 -0.0040283321647402
  0.8289809205875693  0.1604664553492663  0.7496787903757056
  0.6692213275529222  0.6683953889733880  0.0099287677859822
  0.3262431346654115  0.6621954252986626  0.0183172825027456
  0.1787443042731653  0.4994916004697770  0.7448994609495861
  0.6694680787935390  0.3343049991850712 -0.0153820362676254
  0.3298205474312995  0.3349603899983028  0.0062727688949957
  0.1735368540457363  0.1759308046483797  0.2446534180652373
  0.8196713408341966  0.5002989103475001  0.2398263760485840
  0.6752955736912756  0.3372537828060140  0.5149709113718000
  0.4917135441857578  0.4956553782315918  0.2476382287845313
  0.8295995191509568  0.8415601108164815  0.7537232299116619
  0.1635238484271159  0.8224135280732043  0.7503229935245680
  0.5106033151920129  0.1737658411455293  0.2493069738456931
 -0.0023012462975440  0.6606107714802978  0.0023817694478403
 
  0.00000000E+00  0.00000000E+00  0.00000000E+00
  0.00000000E+00  0.00000000E+00  0.00000000E+00
  0.00000000E+00  0.00000000E+00  0.00000000E+00
  0.00000000E+00  0.00000000E+00  0.00000000E+00
  0.00000000E+00  0.00000000E+00  0.00000000E+00
  0.00000000E+00  0.00000000E+00  0.00000000E+00
  0.00000000E+00  0.00000000E+00  0.00000000E+00
  0.00000000E+00  0.00000000E+00  0.00000000E+00
  0.00000000E+00  0.00000000E+00  0.00000000E+00
  0.00000000E+00  0.00000000E+00  0.00000000E+00
  0.00000000E+00  0.00000000E+00  0.00000000E+00
  0.00000000E+00  0.00000000E+00  0.00000000E+00
  0.00000000E+00  0.00000000E+00  0.00000000E+00
  0.00000000E+00  0.00000000E+00  0.00000000E+00
  0.00000000E+00  0.00000000E+00  0.00000000E+00
  0.00000000E+00  0.00000000E+00  0.00000000E+00
  0.00000000E+00  0.00000000E+00  0.00000000E+00
  0.00000000E+00  0.00000000E+00  0.00000000E+00
  0.00000000E+00  0.00000000E+00  0.00000000E+00
  0.00000000E+00  0.00000000E+00  0.00000000E+00
  0.00000000E+00  0.00000000E+00  0.00000000E+00
  0.00000000E+00  0.00000000E+00  0.00000000E+00
  0.00000000E+00  0.00000000E+00  0.00000000E+00
  0.00000000E+00  0.00000000E+00  0.00000000E+00
  0.00000000E+00  0.00000000E+00  0.00000000E+00
  0.00000000E+00  0.00000000E+00  0.00000000E+00
  0.00000000E+00  0.00000000E+00  0.00000000E+00
  0.00000000E+00  0.00000000E+00  0.00000000E+00
  0.00000000E+00  0.00000000E+00  0.00000000E+00
  0.00000000E+00  0.00000000E+00  0.00000000E+00
  0.00000000E+00  0.00000000E+00  0.00000000E+00
  0.00000000E+00  0.00000000E+00  0.00000000E+00
  0.00000000E+00  0.00000000E+00  0.00000000E+00
  0.00000000E+00  0.00000000E+00  0.00000000E+00
  0.00000000E+00  0.00000000E+00  0.00000000E+00
  0.00000000E+00  0.00000000E+00  0.00000000E+00
