title                                   
    1.000000000000000     
     9.7525299144873490    0.0151682149141957    0.0079351682150523
     0.0151527518653279    9.7798642201084895   -0.0083484146122591
     0.0053108539191004   -0.0055838741761367    6.5188552639985522
   Cr   Nb   Ta   Ti
     4    11    14     7
Direct
  0.6705904290271867  0.6742840645073735  0.5037487294917363
  0.3331106201215082 -0.0017056574102414  0.5017864514237210
 -0.0059133857174481 -0.0008275645898839  0.5015326923786810
  0.6670510793166867  0.6698504466378083 -0.0028431252753646
  0.5145988108493833  0.5136993246103139  0.2478715814830134
  0.3363397210071765  0.6665728166793982  0.5004209251050642
  0.3351345391845185  0.3355226787704438  0.4956670848339245
  0.5055335130559292  0.8252777960520525  0.7450986744785628
  0.6619059165985686  0.3287803440464593  0.0003223353081269
  0.6635961145954589  0.3306589038356256  0.4989461342767774
 -0.0003123911636220  0.3361046518576585  0.4995552577011426
  0.0006882615711189  0.6695944860326474  0.0012279470272401
  0.8244633396655112  0.8247994379018565  0.2535478754629769
  0.3346685907726640 -0.0020890629398598  0.0004529779973035
  0.1693827845523732  0.1590761776557248  0.2632988004590634
  0.8398129603266438  0.1636603751223044  0.7430530728555429
  0.6670874979654792 -0.0016935480744056 -0.0016529691677628
  0.1663300097474660  0.5015288937998901  0.2492613928874111
  0.1667916471698367  0.4995007632962767  0.7475889303415485
  0.8213936085294794  0.5087825803313175  0.7533133923980810
  0.0031029675957900  0.3303211166631925 -0.0001969387044922
 -0.0029766329667280  0.0010744906286239  0.0045964592390993
  0.1675254680691315  0.8460075006128308  0.7391397651353514
  0.8311639791404610  0.8293612167340518  0.7466982263689342
 -0.0012977535046960  0.6680165123768228  0.4984427547168686
  0.1706795120863908  0.8411600802649010  0.2607582189861624
  0.8347782720339547  0.1661099474427634  0.2565624014666796
  0.3359716380169785  0.6662629029250928 -0.0011799554816753
  0.4899129778495911  0.1605504692161665  0.7380244050138837
  0.3337504415573516  0.3353092723467420  0.0007461085221405
  0.5017659223990565  0.8309181048247541  0.2577078861962516
  0.6687344145510863 -0.0019422999521950  0.5034492453633014
  0.1686520033508223  0.1546839659005645  0.7340118749279958
  0.5153927595097914  0.5102303451474235  0.7505260922509474
  0.8212765644244394  0.5090765257406799  0.2447564106174130
  0.4893137987106626  0.1514819410048258  0.2637588839143485
 
  0.00000000E+00  0.00000000E+00  0.00000000E+00
  0.00000000E+00  0.00000000E+00  0.00000000E+00
  0.00000000E+00  0.00000000E+00  0.00000000E+00
  0.00000000E+00  0.00000000E+00  0.00000000E+00
  0.00000000E+00  0.00000000E+00  0.00000000E+00
  0.00000000E+00  0.00000000E+00  0.00000000E+00
  0.00000000E+00  0.00000000E+00  0.00000000E+00
  0.00000000E+00  0.00000000E+00  0.00000000E+00
  0.00000000E+00  0.00000000E+00  0.00000000E+00
  0.00000000E+00  0.00000000E+00  0.00000000E+00
  0.00000000E+00  0.00000000E+00  0.00000000E+00
  0.00000000E+00  0.00000000E+00  0.00000000E+00
  0.00000000E+00  0.00000000E+00  0.00000000E+00
  0.00000000E+00  0.00000000E+00  0.00000000E+00
  0.00000000E+00  0.00000000E+00  0.00000000E+00
  0.00000000E+00  0.00000000E+00  0.00000000E+00
  0.00000000E+00  0.00000000E+00  0.00000000E+00
  0.00000000E+00  0.00000000E+00  0.00000000E+00
  0.00000000E+00  0.00000000E+00  0.00000000E+00
  0.00000000E+00  0.00000000E+00  0.00000000E+00
  0.00000000E+00  0.00000000E+00  0.00000000E+00
  0.00000000E+00  0.00000000E+00  0.00000000E+00
  0.00000000E+00  0.00000000E+00  0.00000000E+00
  0.00000000E+00  0.00000000E+00  0.00000000E+00
  0.00000000E+00  0.00000000E+00  0.00000000E+00
  0.00000000E+00  0.00000000E+00  0.00000000E+00
  0.00000000E+00  0.00000000E+00  0.00000000E+00
  0.00000000E+00  0.00000000E+00  0.00000000E+00
  0.00000000E+00  0.00000000E+00  0.00000000E+00
  0.00000000E+00  0.00000000E+00  0.00000000E+00
  0.00000000E+00  0.00000000E+00  0.00000000E+00
  0.00000000E+00  0.00000000E+00  0.00000000E+00
  0.00000000E+00  0.00000000E+00  0.00000000E+00
  0.00000000E+00  0.00000000E+00  0.00000000E+00
  0.00000000E+00  0.00000000E+00  0.00000000E+00
  0.00000000E+00  0.00000000E+00  0.00000000E+00
