title                                   
    1.000000000000000     
     9.6417626019791243    0.0208525426459862   -0.0371031146508990
     0.0210681593685266    9.6671357191031717   -0.0265976510749860
    -0.0246455192830821   -0.0177537429974538    6.4249591196673874
   Hf   Mo   Ta   Ti   V 
     4    15     3    11     3
Direct
  0.1728493689849799  0.5048560375368284  0.2664769078425437
  0.8291380076809542  0.4990193383188543  0.7518834016113263
  0.3292423176567610 -0.0012319212348302 -0.0016639558735545
  0.8314989302978625  0.1667817868986432  0.7380106031949959
  0.6672552533694068  0.6689694990141443  0.0032551482851028
  0.1687081490770877  0.4979636304222039  0.7634793135633858
  0.0087759738353636  0.3293364190978412  0.5051234337212820
  0.6606266889899803  0.3320964305374360  0.4957351932993307
  0.8285910900910687  0.8288881595978339  0.7463320770013998
  0.5085556561687469  0.8219334040066976  0.2485333096196543
  0.8256157798126693  0.1701985640044607  0.2463307559877372
  0.1646316894410181  0.8311558411601075  0.7476118953981283
  0.3288649606108587  0.3319117376718415 -0.0021997743448992
  0.6645799252846163  0.3301910464127468  0.0078155333833737
  0.3337030852631078  0.6701695640939218  0.5120123804945689
  0.8285618694072864  0.5049403938812163  0.2534135807315489
  0.5011122974577329  0.1742914988916305  0.7485918118912190
  0.1601520015524238  0.8267690252190554  0.2483039527521800
  0.1648771404643932  0.1729100010158508  0.2576750591734639
  0.5042964887213770  0.8197091076049242  0.7357793045233827
  0.0018356397991352  0.3275900549032313  0.0147978583612362
  0.3274415280148730  0.0039674639980662  0.4979588612168058
  0.8327167788463838  0.8204406352821514  0.2257542324465039
  0.5047703498180779  0.4943858478516775  0.2569326277010983
  0.5078867615044645  0.5046265851171186  0.7585966155793377
  0.0053073886949451 -0.0064118651983056  0.4889655403851433
  0.6624332031316490 -0.0080941595837367  0.4750609806661555
 -0.0004316135854762  0.6787238251095179  0.5125530641856944
  0.0027670588418638 -0.0023592617494879 -0.0016174921146510
  0.3333600357373162  0.3241548254572876  0.5268467135302635
  0.6621204298800164 -0.0011341145052817 -0.0051133653455582
  0.3297804403113375  0.6754716187252098  0.0031073313803136
  0.5033297194119815  0.1843814623089020  0.2472856161621386
  0.6740277859023555  0.6710760104021032  0.4882179363076206
  0.1570394805127670  0.1744695494874869  0.7499772809854126
  0.0139783390106149  0.6778519582426532 -0.0118237337036851
 
  0.00000000E+00  0.00000000E+00  0.00000000E+00
  0.00000000E+00  0.00000000E+00  0.00000000E+00
  0.00000000E+00  0.00000000E+00  0.00000000E+00
  0.00000000E+00  0.00000000E+00  0.00000000E+00
  0.00000000E+00  0.00000000E+00  0.00000000E+00
  0.00000000E+00  0.00000000E+00  0.00000000E+00
  0.00000000E+00  0.00000000E+00  0.00000000E+00
  0.00000000E+00  0.00000000E+00  0.00000000E+00
  0.00000000E+00  0.00000000E+00  0.00000000E+00
  0.00000000E+00  0.00000000E+00  0.00000000E+00
  0.00000000E+00  0.00000000E+00  0.00000000E+00
  0.00000000E+00  0.00000000E+00  0.00000000E+00
  0.00000000E+00  0.00000000E+00  0.00000000E+00
  0.00000000E+00  0.00000000E+00  0.00000000E+00
  0.00000000E+00  0.00000000E+00  0.00000000E+00
  0.00000000E+00  0.00000000E+00  0.00000000E+00
  0.00000000E+00  0.00000000E+00  0.00000000E+00
  0.00000000E+00  0.00000000E+00  0.00000000E+00
  0.00000000E+00  0.00000000E+00  0.00000000E+00
  0.00000000E+00  0.00000000E+00  0.00000000E+00
  0.00000000E+00  0.00000000E+00  0.00000000E+00
  0.00000000E+00  0.00000000E+00  0.00000000E+00
  0.00000000E+00  0.00000000E+00  0.00000000E+00
  0.00000000E+00  0.00000000E+00  0.00000000E+00
  0.00000000E+00  0.00000000E+00  0.00000000E+00
  0.00000000E+00  0.00000000E+00  0.00000000E+00
  0.00000000E+00  0.00000000E+00  0.00000000E+00
  0.00000000E+00  0.00000000E+00  0.00000000E+00
  0.00000000E+00  0.00000000E+00  0.00000000E+00
  0.00000000E+00  0.00000000E+00  0.00000000E+00
  0.00000000E+00  0.00000000E+00  0.00000000E+00
  0.00000000E+00  0.00000000E+00  0.00000000E+00
  0.00000000E+00  0.00000000E+00  0.00000000E+00
  0.00000000E+00  0.00000000E+00  0.00000000E+00
  0.00000000E+00  0.00000000E+00  0.00000000E+00
  0.00000000E+00  0.00000000E+00  0.00000000E+00
