title                                   
    1.000000000000000     
     9.3777451493130908    0.0079759476860336    0.0144707058524478
     0.0079840769219726    9.3413958313167669    0.0098931170151278
     0.0096337488289903    0.0065800335532894    6.2435804324774589
   Cr   Mo   Nb
    12    12    12
Direct
  0.1712022497557720  0.4972871394358475  0.7435675977228370
  0.6602563954640824  0.6629874429441691  0.5019918700987367
  0.6623288477235658  0.6663737632212929 -0.0014138050029352
  0.4962542880399060  0.1676521159615492  0.2554217130739427
  0.0044263905477958  0.0023418594105712  0.0010170308910926
  0.6551342137154602  0.3350014871089704  0.5016944884850338
  0.3335233192738477  0.3347431811338960  0.5014401303191265
  0.1694873388360446  0.1660200655980507  0.2517485151290815
  0.3367869648629735  0.6577590518079496  0.5028433441934153
  0.0091340324850773  0.3329610585545080  0.5017126130626846
  0.4986612280963595  0.5007127636869676  0.7384629345701458
  0.1685672586881805  0.8356706354572456  0.2468602517866362
  0.4999104422481693  0.8288479674345020  0.2526141260773269
  0.1681377059214977  0.1701046783124164  0.7432684905895344
  0.1706912946225198  0.4956976159767339  0.2630842086698489
  0.4999864537046507  0.4998855069078339  0.2669520616053776
  0.4984053530925984  0.1696156214015517  0.7404683295261602
  0.3301808779669325  0.0030069727649518  0.0079852661810395
  0.6639573028616637  0.0013943948113523 -0.0007173216248480
  0.6633089993876903  0.0031420207212960  0.4974838477431189
  0.8313101640159090  0.8328047427691386  0.7539082766730667
  0.3330815230080179  0.0051661379841962  0.4907138207287844
  0.0045760972428166  0.6678802702197358  0.0007591494203506
  0.8342861779429064  0.1683384719415347  0.7467686570260100
  0.5030685003948825  0.8272350294357355  0.7467948485759470
  0.8329437603774681  0.1688641286828683  0.2520593279950638
  0.3329153528539936  0.3324145817869791  0.0022637372844999
  0.8280708811417034  0.5015312106756545  0.2551270134033595
  0.0054877601579916  0.0036673998464702  0.4946386538621294
  0.0081558685333665  0.6655755961903181  0.5014016274865805
  0.0064617347129124  0.3321499948567417 -0.0027399129629192
  0.3341798003780347  0.6604604035168464  0.0037898004855723
  0.8263967658199983  0.5017904592054654  0.7439698668239282
  0.1703678914995968  0.8343371880207365  0.7522347294212290
  0.8306052494984502  0.8320074448646403  0.2448628859905858
  0.6577515151271646  0.3345715973512817 -0.0030381753115456
 
  0.00000000E+00  0.00000000E+00  0.00000000E+00
  0.00000000E+00  0.00000000E+00  0.00000000E+00
  0.00000000E+00  0.00000000E+00  0.00000000E+00
  0.00000000E+00  0.00000000E+00  0.00000000E+00
  0.00000000E+00  0.00000000E+00  0.00000000E+00
  0.00000000E+00  0.00000000E+00  0.00000000E+00
  0.00000000E+00  0.00000000E+00  0.00000000E+00
  0.00000000E+00  0.00000000E+00  0.00000000E+00
  0.00000000E+00  0.00000000E+00  0.00000000E+00
  0.00000000E+00  0.00000000E+00  0.00000000E+00
  0.00000000E+00  0.00000000E+00  0.00000000E+00
  0.00000000E+00  0.00000000E+00  0.00000000E+00
  0.00000000E+00  0.00000000E+00  0.00000000E+00
  0.00000000E+00  0.00000000E+00  0.00000000E+00
  0.00000000E+00  0.00000000E+00  0.00000000E+00
  0.00000000E+00  0.00000000E+00  0.00000000E+00
  0.00000000E+00  0.00000000E+00  0.00000000E+00
  0.00000000E+00  0.00000000E+00  0.00000000E+00
  0.00000000E+00  0.00000000E+00  0.00000000E+00
  0.00000000E+00  0.00000000E+00  0.00000000E+00
  0.00000000E+00  0.00000000E+00  0.00000000E+00
  0.00000000E+00  0.00000000E+00  0.00000000E+00
  0.00000000E+00  0.00000000E+00  0.00000000E+00
  0.00000000E+00  0.00000000E+00  0.00000000E+00
  0.00000000E+00  0.00000000E+00  0.00000000E+00
  0.00000000E+00  0.00000000E+00  0.00000000E+00
  0.00000000E+00  0.00000000E+00  0.00000000E+00
  0.00000000E+00  0.00000000E+00  0.00000000E+00
  0.00000000E+00  0.00000000E+00  0.00000000E+00
  0.00000000E+00  0.00000000E+00  0.00000000E+00
  0.00000000E+00  0.00000000E+00  0.00000000E+00
  0.00000000E+00  0.00000000E+00  0.00000000E+00
  0.00000000E+00  0.00000000E+00  0.00000000E+00
  0.00000000E+00  0.00000000E+00  0.00000000E+00
  0.00000000E+00  0.00000000E+00  0.00000000E+00
  0.00000000E+00  0.00000000E+00  0.00000000E+00
