title                                   
    1.000000000000000     
    10.3485641648925633   -0.0005992614635442   -0.0374988878401552
     0.0000281271744142   10.0321161203275864   -0.0143196829634000
    -0.0263781444228146   -0.0094795531020472    6.6773343221728760
   Cr   Ta   Ti   W    Zr
     3    11     4     3    15
Direct
  0.3200559847838155  0.6513897912455839  0.0136654682682847
  0.1987154421401114  0.4997540022582466  0.2236596386265071
  0.4950268483624689  0.1589597068046979  0.2487154629609727
  0.8117341886536250  0.5086070679092782  0.2686210012700493
  0.1963702717863970  0.8329558918777401  0.2329601869002126
  0.6394442837194260  0.3202421504950677  0.4865461239252334
  0.3440626083845690  0.0083080732773739  0.0042482736680495
  0.6330924154256572  0.0101238558766148  0.4845382025315164
  0.6643848012303618  0.6615229984503339  0.0031552162976677
  0.4923278425275689  0.1655123887536929  0.7493276087103664
  0.6448787144394104  0.6761072180533013  0.4971413407940788
  0.3391232694824768  0.3345653209639472  0.4919300465727654
  0.1955685671507458  0.4977899691608507  0.7726249086919031
  0.1887283021032123  0.1689149231112778  0.7489936593316536
  0.2081381556593033  0.8242346466409877  0.7784822122697824
  0.4941838466081681  0.8372612156421109  0.7592361633137826
  0.4868116487553555  0.5007768002069669  0.7589929798995853
  0.4936568462282681  0.8339351978188481  0.2358783309589988
  0.3449253369814610 -0.0001889903508169  0.5003155691785540
  0.6382765855349822  0.0135341493044154  0.0118739306079870
  0.3336454324186632  0.3287386721701347  0.0002632581621103
  0.8159348847972326  0.4994868926050878  0.7286635567449785
  0.0107452483765857  0.3467242314243741  0.0089082374037118
  0.8301245237438433  0.1626824973793431  0.2548483441457808
  0.0235155849619877 -0.0192649251213727  0.5169613338016904
  0.8046699820879391  0.8422320526260419  0.7570484130269188
  0.0071376299878862  0.6622640280883629  0.0097286778173978
  0.0114132123086004  0.6678006407472603  0.4997153053503910
  0.4902651389124759  0.5074535056327153  0.2305669660246905
  0.0173520267244438 -0.0108968308565335 -0.0123461185470731
  0.3264737245240515  0.6630753362571846  0.4946909158410794
  0.6576858987410953  0.3288462568702453  0.0063850428191956
  0.8158291117478987  0.8389156982931978  0.2489991614970823
  0.0224462012360283  0.3527051450183332  0.4883987614572050
  0.1785083163046615  0.1638879802066973  0.2533812181622734
  0.8247471231692209  0.1610424411584091  0.7428806015146177
 
  0.00000000E+00  0.00000000E+00  0.00000000E+00
  0.00000000E+00  0.00000000E+00  0.00000000E+00
  0.00000000E+00  0.00000000E+00  0.00000000E+00
  0.00000000E+00  0.00000000E+00  0.00000000E+00
  0.00000000E+00  0.00000000E+00  0.00000000E+00
  0.00000000E+00  0.00000000E+00  0.00000000E+00
  0.00000000E+00  0.00000000E+00  0.00000000E+00
  0.00000000E+00  0.00000000E+00  0.00000000E+00
  0.00000000E+00  0.00000000E+00  0.00000000E+00
  0.00000000E+00  0.00000000E+00  0.00000000E+00
  0.00000000E+00  0.00000000E+00  0.00000000E+00
  0.00000000E+00  0.00000000E+00  0.00000000E+00
  0.00000000E+00  0.00000000E+00  0.00000000E+00
  0.00000000E+00  0.00000000E+00  0.00000000E+00
  0.00000000E+00  0.00000000E+00  0.00000000E+00
  0.00000000E+00  0.00000000E+00  0.00000000E+00
  0.00000000E+00  0.00000000E+00  0.00000000E+00
  0.00000000E+00  0.00000000E+00  0.00000000E+00
  0.00000000E+00  0.00000000E+00  0.00000000E+00
  0.00000000E+00  0.00000000E+00  0.00000000E+00
  0.00000000E+00  0.00000000E+00  0.00000000E+00
  0.00000000E+00  0.00000000E+00  0.00000000E+00
  0.00000000E+00  0.00000000E+00  0.00000000E+00
  0.00000000E+00  0.00000000E+00  0.00000000E+00
  0.00000000E+00  0.00000000E+00  0.00000000E+00
  0.00000000E+00  0.00000000E+00  0.00000000E+00
  0.00000000E+00  0.00000000E+00  0.00000000E+00
  0.00000000E+00  0.00000000E+00  0.00000000E+00
  0.00000000E+00  0.00000000E+00  0.00000000E+00
  0.00000000E+00  0.00000000E+00  0.00000000E+00
  0.00000000E+00  0.00000000E+00  0.00000000E+00
  0.00000000E+00  0.00000000E+00  0.00000000E+00
  0.00000000E+00  0.00000000E+00  0.00000000E+00
  0.00000000E+00  0.00000000E+00  0.00000000E+00
  0.00000000E+00  0.00000000E+00  0.00000000E+00
  0.00000000E+00  0.00000000E+00  0.00000000E+00
