title                                   
    1.000000000000000     
     9.4620553815945918   -0.0272246168851894    0.0481708610489518
    -0.0272597209044089    9.4675740834330497    0.0409696674188015
     0.0322330834422875    0.0275591160675032    6.3664864441000102
   Cr   Nb   Ti   V 
     7    11    14     4
Direct
  0.1560750674938483  0.8412887847768415  0.7250109433427571
  0.0062148306929267 -0.0005987201266833  0.5029936786690568
  0.8397755918181556  0.8418867440928494  0.2535314764844504
  0.4977871604740441  0.5118856751227412  0.2497492915046551
  0.5011917331240178  0.8324736742728178  0.7509418591105815
  0.8320387302095203  0.4938630061068798  0.7477671651154205
  0.1537107702023564  0.1561359436564149  0.2591240833154431
  0.8327023405962581  0.4968719162203850  0.2502104288267226
  0.0038911579755140  0.3340539318282385 -0.0007385149398485
  0.3332625430406749  0.3338356299293458  0.4837589077442984
  0.5004901326496712  0.4931828724584514  0.7471735978321398
  0.6681767777336858  0.6664989777312100 -0.0055680622051362
  0.0015788719389141  0.3370161297766355  0.5027959667274007
  0.8408797786882950  0.8418857267681276  0.7425356408732193
  0.5073122666413108  0.1654235145013384  0.2586744707175965
  0.6653469827310267 -0.0126831790796490  0.5030524049536906
  0.3298822038625867  0.6691299389115765  0.5063856122750203
  0.1640875407435769  0.1661264114586653  0.7472458465883390
  0.3288091017872016 -0.0056821478165085  0.5156860199413843
 -0.0011832688083205 -0.0001827461300659  0.0030370687440516
  0.6740390795074191 -0.0046607217715189  0.0001359286352186
  0.6694727881767578  0.6622711807026344  0.4986385051520656
  0.8385323175324088  0.1599453812749237  0.2740955263110991
  0.1507791566668917  0.8458943099658626  0.2713180050504695
 -0.0069682497463302  0.6656276056421113  0.5073814707057920
  0.3315836655731811  0.3399873885324795  0.0148844565299315
  0.3280461414809215 -0.0119282877663148 -0.0139247406469247
  0.0052194597077770  0.6705602285905163 -0.0081731297754946
  0.3247998516219889  0.6682169504541858 -0.0091098052144860
  0.6728892551493417  0.3366140227598644 -0.0051084840773029
  0.5090382078613147  0.1713214851525209  0.7425236116332873
  0.4967824732818142  0.8213477944991916  0.2443918107109130
  0.6730867467020388  0.3473046898533819  0.5090994302130702
  0.1663686715992029  0.5004148491715762  0.2580167148459301
  0.1685180649978342  0.4986724847958312  0.7403153343544062
  0.8357820562921735  0.1659985536831399  0.7321474799507823
 
  0.00000000E+00  0.00000000E+00  0.00000000E+00
  0.00000000E+00  0.00000000E+00  0.00000000E+00
  0.00000000E+00  0.00000000E+00  0.00000000E+00
  0.00000000E+00  0.00000000E+00  0.00000000E+00
  0.00000000E+00  0.00000000E+00  0.00000000E+00
  0.00000000E+00  0.00000000E+00  0.00000000E+00
  0.00000000E+00  0.00000000E+00  0.00000000E+00
  0.00000000E+00  0.00000000E+00  0.00000000E+00
  0.00000000E+00  0.00000000E+00  0.00000000E+00
  0.00000000E+00  0.00000000E+00  0.00000000E+00
  0.00000000E+00  0.00000000E+00  0.00000000E+00
  0.00000000E+00  0.00000000E+00  0.00000000E+00
  0.00000000E+00  0.00000000E+00  0.00000000E+00
  0.00000000E+00  0.00000000E+00  0.00000000E+00
  0.00000000E+00  0.00000000E+00  0.00000000E+00
  0.00000000E+00  0.00000000E+00  0.00000000E+00
  0.00000000E+00  0.00000000E+00  0.00000000E+00
  0.00000000E+00  0.00000000E+00  0.00000000E+00
  0.00000000E+00  0.00000000E+00  0.00000000E+00
  0.00000000E+00  0.00000000E+00  0.00000000E+00
  0.00000000E+00  0.00000000E+00  0.00000000E+00
  0.00000000E+00  0.00000000E+00  0.00000000E+00
  0.00000000E+00  0.00000000E+00  0.00000000E+00
  0.00000000E+00  0.00000000E+00  0.00000000E+00
  0.00000000E+00  0.00000000E+00  0.00000000E+00
  0.00000000E+00  0.00000000E+00  0.00000000E+00
  0.00000000E+00  0.00000000E+00  0.00000000E+00
  0.00000000E+00  0.00000000E+00  0.00000000E+00
  0.00000000E+00  0.00000000E+00  0.00000000E+00
  0.00000000E+00  0.00000000E+00  0.00000000E+00
  0.00000000E+00  0.00000000E+00  0.00000000E+00
  0.00000000E+00  0.00000000E+00  0.00000000E+00
  0.00000000E+00  0.00000000E+00  0.00000000E+00
  0.00000000E+00  0.00000000E+00  0.00000000E+00
  0.00000000E+00  0.00000000E+00  0.00000000E+00
  0.00000000E+00  0.00000000E+00  0.00000000E+00
