title                                   
    1.000000000000000     
    10.0166811631267141   -0.0216903876864802    0.0509991726029088
    -0.0212104290525152    9.9298785211426477   -0.0359404541532623
     0.0336050295679995   -0.0245188320281578    6.8558868495089973
   Hf   Ta   Ti
    10     8    18
Direct
  0.0015781227094288  0.3445193878699428  0.0018428465273143
  0.6606633082248802  0.3134329755048147  0.4802738802711374
  0.1740321694386633  0.8258800260492474  0.2592146851632075
  0.4896579111308709  0.4960188669989073  0.2313726371007704
 -0.0014613580851002  0.0149295259533828  0.5051594982940107
  0.3490197551596353  0.0149070732632470  0.5130672545594582
  0.3336007582722815  0.3287517692172047  0.5234342138604777
  0.3277360034937269  0.6612063120967483 -0.0323866983696855
  0.8222309534164635  0.5037592849970816  0.7376999428612497
  0.3560770825010250 -0.0193777697987484 -0.0168334795487655
 -0.0025778308290592  0.3220780102849988  0.4877392641762037
  0.8383429259206353  0.1557981103383893  0.2303536940445597
  0.1671580056086745  0.5024735019181295  0.2721285934544593
  0.8413481059736306  0.8355625917438435  0.2458109557079327
 -0.0056968104258866 -0.0087793351396342 -0.0043068034254026
 -0.0091765296884937  0.6782845920857165  0.4990873898482723
  0.8230764293714745  0.8336428071056989  0.7521842341669223
  0.1543741416367076  0.8365600973321459  0.7427776008071029
  0.8214024839600705  0.1627660915387555  0.7738023671954305
  0.1412337457404580  0.5099598991316409  0.7075167923376616
  0.5214950492741081  0.4913760570924154  0.7730929785487044
  0.5297366646301829  0.8196008605119524  0.7219148631432895
  0.6640438750043790  0.6838734405347745  0.0248724077887008
  0.3366420943142167  0.6542835674469976  0.5363694311672754
  0.3106283115296627  0.3516912285874156 -0.0340484927978091
  0.4831426306445508  0.8171826885529082  0.2794522325777321
  0.8396409993128878  0.5101873135321070  0.2736267022597197
  0.6643671944026647  0.0025170625815099  0.4932712358995748
  0.0001548191078616  0.6659858387654818 -0.0028899457211753
  0.1752318876201512  0.1723846531559050  0.2241761143353768
  0.6617749420538532 -0.0113988164369482  0.0116439106435466
  0.6916142182596046  0.3364254747478006  0.0339693350243345
  0.5180813655519343  0.1834911752879736  0.7923095198849713
  0.4833672307886661  0.1827017921802464  0.2097139276793882
  0.6719044886700174  0.6741947285922691  0.4666687069096419
  0.1655548553051737  0.1531291163756790  0.7859182036244096
 
  0.00000000E+00  0.00000000E+00  0.00000000E+00
  0.00000000E+00  0.00000000E+00  0.00000000E+00
  0.00000000E+00  0.00000000E+00  0.00000000E+00
  0.00000000E+00  0.00000000E+00  0.00000000E+00
  0.00000000E+00  0.00000000E+00  0.00000000E+00
  0.00000000E+00  0.00000000E+00  0.00000000E+00
  0.00000000E+00  0.00000000E+00  0.00000000E+00
  0.00000000E+00  0.00000000E+00  0.00000000E+00
  0.00000000E+00  0.00000000E+00  0.00000000E+00
  0.00000000E+00  0.00000000E+00  0.00000000E+00
  0.00000000E+00  0.00000000E+00  0.00000000E+00
  0.00000000E+00  0.00000000E+00  0.00000000E+00
  0.00000000E+00  0.00000000E+00  0.00000000E+00
  0.00000000E+00  0.00000000E+00  0.00000000E+00
  0.00000000E+00  0.00000000E+00  0.00000000E+00
  0.00000000E+00  0.00000000E+00  0.00000000E+00
  0.00000000E+00  0.00000000E+00  0.00000000E+00
  0.00000000E+00  0.00000000E+00  0.00000000E+00
  0.00000000E+00  0.00000000E+00  0.00000000E+00
  0.00000000E+00  0.00000000E+00  0.00000000E+00
  0.00000000E+00  0.00000000E+00  0.00000000E+00
  0.00000000E+00  0.00000000E+00  0.00000000E+00
  0.00000000E+00  0.00000000E+00  0.00000000E+00
  0.00000000E+00  0.00000000E+00  0.00000000E+00
  0.00000000E+00  0.00000000E+00  0.00000000E+00
  0.00000000E+00  0.00000000E+00  0.00000000E+00
  0.00000000E+00  0.00000000E+00  0.00000000E+00
  0.00000000E+00  0.00000000E+00  0.00000000E+00
  0.00000000E+00  0.00000000E+00  0.00000000E+00
  0.00000000E+00  0.00000000E+00  0.00000000E+00
  0.00000000E+00  0.00000000E+00  0.00000000E+00
  0.00000000E+00  0.00000000E+00  0.00000000E+00
  0.00000000E+00  0.00000000E+00  0.00000000E+00
  0.00000000E+00  0.00000000E+00  0.00000000E+00
  0.00000000E+00  0.00000000E+00  0.00000000E+00
  0.00000000E+00  0.00000000E+00  0.00000000E+00
