title                                   
    1.000000000000000     
     9.8312292526699530   -0.0041791332351049    0.0088905446951382
    -0.0040025489160543    9.7776744272157625   -0.0192823799128666
     0.0060248646183895   -0.0128631318869986    6.5168476142494596
   Mo   Ta   V    Zr
     4    14    11     7
Direct
  0.0058757591033117  0.3363528077162725  0.0006380647713672
  0.1758774946166081  0.8315944306744376  0.7593440307686419
  0.0053263429533101  0.3389355736403902  0.4978465457824518
  0.6539670183115723  0.6725876449276948  0.0026450245794076
  0.6644132616269744  0.0013477962143698 -0.0040050219780737
  0.6549569599876010  0.3357212389283705  0.4981000489551366
  0.4994597136526369  0.8281123172805113  0.7543288122958572
  0.3334205523425387  0.3479137988599891  0.5000134429550783
  0.0075854139525919 -0.0160637349016446 -0.0082622677911322
  0.8358553994560416  0.1697442715785347  0.2495128161352510
  0.5016327206364423  0.5107903823301385  0.7544423206979166
  0.3346889547927876  0.3452719069613391  0.0012227770249202
  0.1631002595366528  0.1695338018937778  0.7504661442453954
  0.3272852900688657 -0.0188269917372714  0.5054457411910872
  0.4939490784210649  0.1625272951983811  0.7514383134163197
  0.1671480902371184  0.5003429557379157  0.7570599069026580
  0.5000859455379479  0.5128606352877176  0.2480720299953955
  0.8256367045657864  0.8325652652194917  0.7474338660445211
  0.0133452410373693 -0.0120774769186655  0.5173692927244601
  0.3254318563022734 -0.0239699055057385 -0.0065837556466779
  0.1879964908282848  0.8294236003841643  0.2348269197901555
  0.3343736345975627  0.6692770507136429  0.4926483506273155
  0.3254873371907993  0.6704579480175688  0.0111925041763467
  0.1703561464814401  0.4993431985356517  0.2399585807882911
  0.6523355620108684 -0.0091139174045423  0.5086687415738117
  0.4969822166767698  0.8251428897422495  0.2524128978479131
  0.6554056333317418  0.3260986617138582 -0.0000764592715757
  0.6434720920501911  0.6775178270451769  0.4999736294460605
  0.0315620858427553  0.6763368335407302  0.0029704511984320
  0.0268490238850116  0.6786686893424725  0.4871016160239738
  0.8359259254878133  0.1669619172086351  0.7421135068571121
  0.8251613940387051  0.8358775024008540  0.2576555592379151
  0.4965901456070283  0.1574437685964928  0.2482237928400014
  0.1592896243026248  0.1647700541527951  0.2515359162917114
  0.8343976660404588  0.5069672758360090  0.7546931943082178
  0.8347729644884494  0.4995626867882274  0.2395726651943352
 
  0.00000000E+00  0.00000000E+00  0.00000000E+00
  0.00000000E+00  0.00000000E+00  0.00000000E+00
  0.00000000E+00  0.00000000E+00  0.00000000E+00
  0.00000000E+00  0.00000000E+00  0.00000000E+00
  0.00000000E+00  0.00000000E+00  0.00000000E+00
  0.00000000E+00  0.00000000E+00  0.00000000E+00
  0.00000000E+00  0.00000000E+00  0.00000000E+00
  0.00000000E+00  0.00000000E+00  0.00000000E+00
  0.00000000E+00  0.00000000E+00  0.00000000E+00
  0.00000000E+00  0.00000000E+00  0.00000000E+00
  0.00000000E+00  0.00000000E+00  0.00000000E+00
  0.00000000E+00  0.00000000E+00  0.00000000E+00
  0.00000000E+00  0.00000000E+00  0.00000000E+00
  0.00000000E+00  0.00000000E+00  0.00000000E+00
  0.00000000E+00  0.00000000E+00  0.00000000E+00
  0.00000000E+00  0.00000000E+00  0.00000000E+00
  0.00000000E+00  0.00000000E+00  0.00000000E+00
  0.00000000E+00  0.00000000E+00  0.00000000E+00
  0.00000000E+00  0.00000000E+00  0.00000000E+00
  0.00000000E+00  0.00000000E+00  0.00000000E+00
  0.00000000E+00  0.00000000E+00  0.00000000E+00
  0.00000000E+00  0.00000000E+00  0.00000000E+00
  0.00000000E+00  0.00000000E+00  0.00000000E+00
  0.00000000E+00  0.00000000E+00  0.00000000E+00
  0.00000000E+00  0.00000000E+00  0.00000000E+00
  0.00000000E+00  0.00000000E+00  0.00000000E+00
  0.00000000E+00  0.00000000E+00  0.00000000E+00
  0.00000000E+00  0.00000000E+00  0.00000000E+00
  0.00000000E+00  0.00000000E+00  0.00000000E+00
  0.00000000E+00  0.00000000E+00  0.00000000E+00
  0.00000000E+00  0.00000000E+00  0.00000000E+00
  0.00000000E+00  0.00000000E+00  0.00000000E+00
  0.00000000E+00  0.00000000E+00  0.00000000E+00
  0.00000000E+00  0.00000000E+00  0.00000000E+00
  0.00000000E+00  0.00000000E+00  0.00000000E+00
  0.00000000E+00  0.00000000E+00  0.00000000E+00
