title                                   
    1.000000000000000     
    10.0015756976292867   -0.0181890546665012   -0.0135263608187904
    -0.0182850989912717    9.9431258836962808   -0.0089924922982699
    -0.0090135819549021   -0.0060445660531856    6.6671373476512796
   Hf   Nb   Ta   W 
     9     9     9     9
Direct
  0.3354344134816489  0.3263059950686820  0.5001564468763510
  0.1648030476156682  0.5097088559195697  0.2503346198791593
  0.1591045699383764  0.1694005119409026  0.7721772997310301
 -0.0011371221022779 -0.0025775605561503  0.4878477005535198
  0.0029284924688904  0.3226331848289069  0.4762615021842999
  0.8325503503554796  0.4976470520585557  0.7474143810759859
  0.8254133880937453  0.1684818844544062  0.7559569761066391
  0.5031560707160109  0.8369107346025609  0.2600336966490369
  0.3418791545612884  0.6612707789245489 -0.0124702269509286
  0.6574836089278487  0.3333130422142955  0.0013025151720453
  0.6696526705468988  0.6685692360639803  0.0012312955788777
  0.5055929171792796  0.8371431834910362  0.7410026705628212
  0.3335878123056673  0.0019039277783903  0.0014270930268597
 -0.0033169350857400  0.6771566789574137  0.4989801449334696
  0.8315669104519273  0.5017141396918342  0.2460537052434182
  0.5081073803552469  0.5013411509227246  0.2577739816724234
 -0.0025451901990110  0.6766394669479611  0.0022731861696720
  0.8267742235898626  0.8340626593124403  0.7499129800216167
  0.5061005361593650  0.1600953508551111  0.2484657730038420
 -0.0040389082599263 -0.0081379987322852  0.0170305867791847
  0.1696425063646394  0.8328073421963863  0.7500206832128005
  0.3320111997111324  0.0080418115256608  0.5044724972143876
  0.5121135715932008  0.5005494762942539  0.7380135905619882
  0.1755817418882176  0.8264031395460839  0.2580120718722861
  0.3412724326644381  0.3345949139171953 -0.0025773960890323
  0.1586547146368825  0.5019766053560284  0.7523801567215331
  0.8191715223949205  0.1639167576801671  0.2414893402313934
  0.6587766897270496  0.3314815548000642  0.4935252815473529
  0.3363308579360090  0.6668048119313352  0.5131466422619303
  0.1697092162128032  0.1630042874100554  0.2317725857948680
  0.5055558838573321  0.1638851662632048  0.7515676932072479
  0.6657936251056304 -0.0007807383300954 -0.0014630921541713
  0.6672463735766864 -0.0005480113433069  0.5018517645328416
  0.8239968760645431  0.8334575531426225  0.2510851685669148
  0.6725359773134594  0.6688337597558491  0.4963346386414660
 -0.0014905801471927  0.3319892951096125  0.0172020456068675
 
  0.00000000E+00  0.00000000E+00  0.00000000E+00
  0.00000000E+00  0.00000000E+00  0.00000000E+00
  0.00000000E+00  0.00000000E+00  0.00000000E+00
  0.00000000E+00  0.00000000E+00  0.00000000E+00
  0.00000000E+00  0.00000000E+00  0.00000000E+00
  0.00000000E+00  0.00000000E+00  0.00000000E+00
  0.00000000E+00  0.00000000E+00  0.00000000E+00
  0.00000000E+00  0.00000000E+00  0.00000000E+00
  0.00000000E+00  0.00000000E+00  0.00000000E+00
  0.00000000E+00  0.00000000E+00  0.00000000E+00
  0.00000000E+00  0.00000000E+00  0.00000000E+00
  0.00000000E+00  0.00000000E+00  0.00000000E+00
  0.00000000E+00  0.00000000E+00  0.00000000E+00
  0.00000000E+00  0.00000000E+00  0.00000000E+00
  0.00000000E+00  0.00000000E+00  0.00000000E+00
  0.00000000E+00  0.00000000E+00  0.00000000E+00
  0.00000000E+00  0.00000000E+00  0.00000000E+00
  0.00000000E+00  0.00000000E+00  0.00000000E+00
  0.00000000E+00  0.00000000E+00  0.00000000E+00
  0.00000000E+00  0.00000000E+00  0.00000000E+00
  0.00000000E+00  0.00000000E+00  0.00000000E+00
  0.00000000E+00  0.00000000E+00  0.00000000E+00
  0.00000000E+00  0.00000000E+00  0.00000000E+00
  0.00000000E+00  0.00000000E+00  0.00000000E+00
  0.00000000E+00  0.00000000E+00  0.00000000E+00
  0.00000000E+00  0.00000000E+00  0.00000000E+00
  0.00000000E+00  0.00000000E+00  0.00000000E+00
  0.00000000E+00  0.00000000E+00  0.00000000E+00
  0.00000000E+00  0.00000000E+00  0.00000000E+00
  0.00000000E+00  0.00000000E+00  0.00000000E+00
  0.00000000E+00  0.00000000E+00  0.00000000E+00
  0.00000000E+00  0.00000000E+00  0.00000000E+00
  0.00000000E+00  0.00000000E+00  0.00000000E+00
  0.00000000E+00  0.00000000E+00  0.00000000E+00
  0.00000000E+00  0.00000000E+00  0.00000000E+00
  0.00000000E+00  0.00000000E+00  0.00000000E+00
