title                                   
    1.000000000000000     
     9.7563255647244294   -0.0035991615262791    0.0217215928156500
    -0.0035255181096569    9.8276813136083252   -0.0034479354320900
     0.0145397404733418   -0.0023308699399028    6.5306082462470165
   Hf   Mo   Ta   V    Zr
     4    15    11     3     3
Direct
  0.5025961112003093  0.8299859031909895  0.2337300550923397
  0.0075325529843439  0.6800824509844809  0.4949898664498720
  0.8329292988227336  0.5008653252648055  0.7469883142129676
  0.6600146300400219  0.3207239000568842  0.0107615165400000
 -0.0009795006210572  0.3291802564335114  0.4973731428387896
 -0.0011593063220255  0.3271089462602967  0.0041992283898627
  0.6670336939440270  0.0072993891951142 -0.0053680865318623
  0.1726946372125592  0.8376724495557090  0.2419398675434580
  0.3322282684426535  0.0010357987350799 -0.0032710696659124
  0.6675660389856465  0.6697296299403844  0.4949795807067736
  0.5015373857011095  0.5073200492155463  0.2440976973354228
  0.1645067771544174  0.1654397505528969  0.7569712714164504
  0.8383518496851601  0.1725734144544573  0.7502144089727087
  0.4989711102036361  0.1567380409195825  0.7539612122566696
  0.0008814711186592  0.6719515026560113  0.0044593475288701
  0.4987831598245762  0.1561354637417985  0.2469159097927855
  0.3310429907467569  0.6648781068362943 -0.0026134140734182
  0.6646766976551025  0.6645259920644618  0.0000592187324702
  0.1609760064382443  0.1680035298726809  0.2498444791523290
  0.8328342481678235  0.4982830658203538  0.2528761782428838
  0.3260880055392483  0.6713903845074741  0.4923916282146807
  0.0029424217199471  0.0062081340363015  0.5050736537903853
  0.3331888676259335  0.0021344529803638  0.5039457095179792
  0.0009024171766813  0.0085781197874062  0.0069748654582865
  0.1731466339689253  0.8351179604789764  0.7644049232708847
  0.3359803723325262  0.3214334667068290  0.0027580161341681
  0.8273933989850419  0.8315893475667926  0.7627654910015043
  0.8268375626808149  0.8320902773586512  0.2411116924373518
  0.1611772210136889  0.4995523403355853  0.7610599244311397
  0.1605343137695154  0.4979401545246259  0.2371877321627483
  0.4977507835879064  0.8246434704828085  0.7586034079540137
  0.8425426096107016  0.1793337458899515  0.2592488273129934
  0.6699218188504842  0.3179369029738743  0.4894789676994927
  0.3363153685141342  0.3253625748689103  0.4951397693872363
  0.5053908002475063  0.5075144646162286  0.7422055621538046
  0.6668692829922457  0.0096412371338824  0.5045411041398704
 
  0.00000000E+00  0.00000000E+00  0.00000000E+00
  0.00000000E+00  0.00000000E+00  0.00000000E+00
  0.00000000E+00  0.00000000E+00  0.00000000E+00
  0.00000000E+00  0.00000000E+00  0.00000000E+00
  0.00000000E+00  0.00000000E+00  0.00000000E+00
  0.00000000E+00  0.00000000E+00  0.00000000E+00
  0.00000000E+00  0.00000000E+00  0.00000000E+00
  0.00000000E+00  0.00000000E+00  0.00000000E+00
  0.00000000E+00  0.00000000E+00  0.00000000E+00
  0.00000000E+00  0.00000000E+00  0.00000000E+00
  0.00000000E+00  0.00000000E+00  0.00000000E+00
  0.00000000E+00  0.00000000E+00  0.00000000E+00
  0.00000000E+00  0.00000000E+00  0.00000000E+00
  0.00000000E+00  0.00000000E+00  0.00000000E+00
  0.00000000E+00  0.00000000E+00  0.00000000E+00
  0.00000000E+00  0.00000000E+00  0.00000000E+00
  0.00000000E+00  0.00000000E+00  0.00000000E+00
  0.00000000E+00  0.00000000E+00  0.00000000E+00
  0.00000000E+00  0.00000000E+00  0.00000000E+00
  0.00000000E+00  0.00000000E+00  0.00000000E+00
  0.00000000E+00  0.00000000E+00  0.00000000E+00
  0.00000000E+00  0.00000000E+00  0.00000000E+00
  0.00000000E+00  0.00000000E+00  0.00000000E+00
  0.00000000E+00  0.00000000E+00  0.00000000E+00
  0.00000000E+00  0.00000000E+00  0.00000000E+00
  0.00000000E+00  0.00000000E+00  0.00000000E+00
  0.00000000E+00  0.00000000E+00  0.00000000E+00
  0.00000000E+00  0.00000000E+00  0.00000000E+00
  0.00000000E+00  0.00000000E+00  0.00000000E+00
  0.00000000E+00  0.00000000E+00  0.00000000E+00
  0.00000000E+00  0.00000000E+00  0.00000000E+00
  0.00000000E+00  0.00000000E+00  0.00000000E+00
  0.00000000E+00  0.00000000E+00  0.00000000E+00
  0.00000000E+00  0.00000000E+00  0.00000000E+00
  0.00000000E+00  0.00000000E+00  0.00000000E+00
  0.00000000E+00  0.00000000E+00  0.00000000E+00
