title                                   
    1.000000000000000     
     9.7643347728430783    0.0487139013659750    0.0746138756641380
     0.0481772727959349    9.7979738261252791   -0.0253089272249359
     0.0495939841099121   -0.0166896176208063    6.6352883588715867
   Hf   Ta   V    W    Zr
    12     6    15     2     1
Direct
  0.0084326560763024 -0.0152994179750640 -0.0212504649382338
  0.1674535553336743  0.1510959172559179  0.2911170480607481
  0.8360706245189142  0.4958899227540000  0.7661017436669333
  0.4906111687160662  0.5100366665077100  0.7746506095676591
  0.8360969901493911  0.1684733131652474  0.2591377164547122
  0.0312280719263195  0.3173477235885894  0.0009260571510597
  0.6609470113263887 -0.0134344515914248  0.5200387661063164
  0.6635026861980957 -0.0121603099070471 -0.0095850646140786
  0.3270959762713662  0.0029571430350792 -0.0235938865079754
  0.1731505994194177  0.5156188267287934  0.7569520596556428
  0.6651223162926357  0.6681663914126518  0.4946943222403465
  0.8450873476987036  0.1776761175408923  0.7218305075425281
  0.6707912734724135  0.6743062491541713  0.0198010458111678
  0.3363725930635863  0.3428131373667389  0.4929418025140999
  0.4992308463072208  0.1761663980722596  0.2481831034447095
  0.5018851040754447  0.1931192703978367  0.7600039022598062
  0.6583680108185903  0.3538207308919446  0.4757073193748146
  0.4744865418840982  0.8357852189597106  0.2648542406060387
  0.8303891981157475  0.4915882326983125  0.2226991273280613
  0.1764412098154388  0.8211397450113367  0.7323251432233850
  0.1741444875945936  0.8347249251962472  0.2619200894870249
  0.3408473418744684  0.3378086069789982  0.0225512611291008
 -0.0051575667482444  0.6749732683531009  0.0149214394130143
  0.1644816741220137  0.1529053146677350  0.7024477693174479
  0.3181546252005306  0.6852530788617722  0.0240852614516611
  0.0035195809587412 -0.0314891186235939  0.5146888391728570
  0.0089917619680340  0.3604100651379023  0.4640106275268366
  0.3323988807646593 -0.0098084204518095  0.5307164610446288
  0.4715430213772744  0.8118059146955303  0.7438961777175620
  0.3255508837782686  0.6767806149021987  0.4852857891574464
  0.6530849106931893  0.3455497545023627  0.0284956191338637
  0.4949214274910709  0.5006763145669935  0.2369303291206717
  0.8469462334486310  0.8058171903851495  0.7615243872536370
  0.1782313202517838  0.5035470860011562  0.2384672707768959
  0.8401253770977438  0.8307568375491394  0.2431108119838969
 -0.0005477413525732  0.6651817422094601  0.4794127673657135
 
  0.00000000E+00  0.00000000E+00  0.00000000E+00
  0.00000000E+00  0.00000000E+00  0.00000000E+00
  0.00000000E+00  0.00000000E+00  0.00000000E+00
  0.00000000E+00  0.00000000E+00  0.00000000E+00
  0.00000000E+00  0.00000000E+00  0.00000000E+00
  0.00000000E+00  0.00000000E+00  0.00000000E+00
  0.00000000E+00  0.00000000E+00  0.00000000E+00
  0.00000000E+00  0.00000000E+00  0.00000000E+00
  0.00000000E+00  0.00000000E+00  0.00000000E+00
  0.00000000E+00  0.00000000E+00  0.00000000E+00
  0.00000000E+00  0.00000000E+00  0.00000000E+00
  0.00000000E+00  0.00000000E+00  0.00000000E+00
  0.00000000E+00  0.00000000E+00  0.00000000E+00
  0.00000000E+00  0.00000000E+00  0.00000000E+00
  0.00000000E+00  0.00000000E+00  0.00000000E+00
  0.00000000E+00  0.00000000E+00  0.00000000E+00
  0.00000000E+00  0.00000000E+00  0.00000000E+00
  0.00000000E+00  0.00000000E+00  0.00000000E+00
  0.00000000E+00  0.00000000E+00  0.00000000E+00
  0.00000000E+00  0.00000000E+00  0.00000000E+00
  0.00000000E+00  0.00000000E+00  0.00000000E+00
  0.00000000E+00  0.00000000E+00  0.00000000E+00
  0.00000000E+00  0.00000000E+00  0.00000000E+00
  0.00000000E+00  0.00000000E+00  0.00000000E+00
  0.00000000E+00  0.00000000E+00  0.00000000E+00
  0.00000000E+00  0.00000000E+00  0.00000000E+00
  0.00000000E+00  0.00000000E+00  0.00000000E+00
  0.00000000E+00  0.00000000E+00  0.00000000E+00
  0.00000000E+00  0.00000000E+00  0.00000000E+00
  0.00000000E+00  0.00000000E+00  0.00000000E+00
  0.00000000E+00  0.00000000E+00  0.00000000E+00
  0.00000000E+00  0.00000000E+00  0.00000000E+00
  0.00000000E+00  0.00000000E+00  0.00000000E+00
  0.00000000E+00  0.00000000E+00  0.00000000E+00
  0.00000000E+00  0.00000000E+00  0.00000000E+00
  0.00000000E+00  0.00000000E+00  0.00000000E+00
