title                                   
    1.000000000000000     
     9.8988270237079217   -0.0243988284499628   -0.0092496895426704
    -0.0246929887231076    9.9066344337758956   -0.0977840896268953
    -0.0060896595012235   -0.0652107462888501    6.6707591710327039
   Hf   Mo   Ti
    12    12    12
Direct
  0.4989198878394232  0.8313775747795944  0.2757251715154732
  0.3343092326721195  0.3296008468705374  0.4995332334647891
  0.8375103405788946  0.1551902497542676  0.7295921569835582
  0.3391234905468696  0.6592583175560796 -0.0051207478173761
  0.0040183697824981  0.3295164191798919  0.4811081280916102
  0.3338264385788809  0.0162584730349017  0.0017364581661150
  0.8468513696296390  0.5157549827518311  0.2291053849190050
  0.0238256076907550  0.3188750575872551  0.0101969214920297
  0.8372001318624813  0.8340799756109624  0.2649075795906420
  0.6636973288911483  0.6485989103397521  0.5283805219167285
  0.6662216144495067  0.0010690283360930 -0.0001433663168273
  0.6568610463414343  0.3309480935886304  0.0024696982420675
  0.3361598373699948  0.6577448087070075  0.5062205183813845
  0.4923833189657583  0.5021008320357423  0.2515664672655405
  0.0063337966776938  0.6842341708528137 -0.0056021581305134
  0.4903037116348507  0.4967141315288624  0.7494481924206009
  0.8322096887977100  0.1566990149028024  0.2584110122334225
 -0.0039062679887406  0.6729189163145612  0.5134727532049361
  0.6614485097421182  0.0050381439626467  0.5026586753144274
  0.1669189312558985  0.1547410793939140  0.2617601145009841
  0.5121348215282863  0.1581293767501745  0.7351099680285259
  0.5024267196457342  0.1663736597532642  0.2540008243726901
  0.0060323109894758 -0.0020184629423940  0.4919825350681141
  0.8410924692856883  0.8309647341671330  0.7511426554334739
  0.6523180583953073  0.6597520430813130 -0.0153039398352887
  0.3444956583653504  0.3381323521276612  0.0040398987899137
  0.1541722307019206  0.5227380820493840  0.7405529639507291
  0.1599097601238756  0.8302825378753464  0.7325413101907446
  0.6536747991825592  0.3284001619613749  0.4830781197226092
  0.8562847515209892  0.5152421711528584  0.7705737749953837
  0.1602893432195518  0.8237786244349943  0.2725467868645486
 -0.0012089056466046  0.0052558963949784  0.0138617919341557
  0.4898048744528791  0.8381954533436730  0.7238358284210608
  0.1476651703792122  0.1404137565372932  0.7294744888428216
  0.3334796174181475  0.0178140727071317  0.4921016931580152
  0.1632119351186935  0.5258265135176681  0.2650345846239064
 
  0.00000000E+00  0.00000000E+00  0.00000000E+00
  0.00000000E+00  0.00000000E+00  0.00000000E+00
  0.00000000E+00  0.00000000E+00  0.00000000E+00
  0.00000000E+00  0.00000000E+00  0.00000000E+00
  0.00000000E+00  0.00000000E+00  0.00000000E+00
  0.00000000E+00  0.00000000E+00  0.00000000E+00
  0.00000000E+00  0.00000000E+00  0.00000000E+00
  0.00000000E+00  0.00000000E+00  0.00000000E+00
  0.00000000E+00  0.00000000E+00  0.00000000E+00
  0.00000000E+00  0.00000000E+00  0.00000000E+00
  0.00000000E+00  0.00000000E+00  0.00000000E+00
  0.00000000E+00  0.00000000E+00  0.00000000E+00
  0.00000000E+00  0.00000000E+00  0.00000000E+00
  0.00000000E+00  0.00000000E+00  0.00000000E+00
  0.00000000E+00  0.00000000E+00  0.00000000E+00
  0.00000000E+00  0.00000000E+00  0.00000000E+00
  0.00000000E+00  0.00000000E+00  0.00000000E+00
  0.00000000E+00  0.00000000E+00  0.00000000E+00
  0.00000000E+00  0.00000000E+00  0.00000000E+00
  0.00000000E+00  0.00000000E+00  0.00000000E+00
  0.00000000E+00  0.00000000E+00  0.00000000E+00
  0.00000000E+00  0.00000000E+00  0.00000000E+00
  0.00000000E+00  0.00000000E+00  0.00000000E+00
  0.00000000E+00  0.00000000E+00  0.00000000E+00
  0.00000000E+00  0.00000000E+00  0.00000000E+00
  0.00000000E+00  0.00000000E+00  0.00000000E+00
  0.00000000E+00  0.00000000E+00  0.00000000E+00
  0.00000000E+00  0.00000000E+00  0.00000000E+00
  0.00000000E+00  0.00000000E+00  0.00000000E+00
  0.00000000E+00  0.00000000E+00  0.00000000E+00
  0.00000000E+00  0.00000000E+00  0.00000000E+00
  0.00000000E+00  0.00000000E+00  0.00000000E+00
  0.00000000E+00  0.00000000E+00  0.00000000E+00
  0.00000000E+00  0.00000000E+00  0.00000000E+00
  0.00000000E+00  0.00000000E+00  0.00000000E+00
  0.00000000E+00  0.00000000E+00  0.00000000E+00
