title                                   
    1.000000000000000     
     9.7625242082384478    0.0341556921884306    0.0499295892599353
     0.0341968601499957    9.7844636826459688    0.0212733212950752
     0.0334723582679943    0.0142257739147483    6.5473473801959416
   Mo   Nb   Ti   W    Zr
    12     2    15     1     6
Direct
 -0.0086359441148005  0.0021729269648404  0.0070218045436583
  0.3386929922566617  0.6714094250309222  0.0047054009264522
  0.6615755860754232 -0.0030360340258890  0.4950418660129770
  0.6655080262207393  0.3279122520386158  0.5004345971226928
  0.1675811196077750  0.5093534880098641  0.2427737149961570
  0.4949917541893931  0.5115448119825436  0.2589448341527798
  0.0015193105092403  0.6598164579587337  0.0144353960174374
  0.6645293725415246  0.6731881995791067  0.4950941875709040
  0.5047410688279755  0.1606353816153692  0.2696923420185133
  0.8339018499760339  0.8360007237358067  0.2538593202919766
 -0.0034158466390311 -0.0024708880910020  0.4923553770055943
  0.3331863240876312  0.6678387600108221  0.4885172666681279
  0.1515016668030735  0.1533415558018469  0.2485916780919459
  0.3269055963237833  0.3303097846483776  0.4886595409705828
  0.1750115289675737  0.5200510686312516  0.7501759735433868
  0.3501051831689645  0.0070053225176508  0.0002041426527556
  0.5216466916219595  0.1609268416427274  0.7279941386457203
  0.1467972102131886  0.1505455770149143  0.7490107086774352
  0.6600873470307621  0.6810367553630070  0.0114187113371187
  0.4890953751265356  0.8259826633187268  0.2596692041513133
  0.0087502649685923  0.3367759505319393 -0.0040438621922404
  0.8334708529355196  0.5067456849641100  0.7431281577684050
  0.0070307805592472  0.6566712004285316  0.4773628217668726
  0.8368782604104141  0.1598348209843587  0.7395190933351324
  0.8366619633297766  0.1575088603318320  0.2701187902738253
  0.3411723468654715  0.0113066393672197  0.4924905946054979
  0.6585455482205711 -0.0057643713768151  0.0117089212431953
  0.0150194796978473  0.3426187899790963  0.5088390691828379
  0.1674903317493006  0.8334028655633288  0.2380604161141473
  0.5024830658473269  0.8359100324673554  0.7401791648602035
  0.8351442995370701  0.8323697360491542  0.7518012823908172
  0.5010523142690715  0.5088112340449463  0.7424811010035254
  0.3273553915258925  0.3285209686388219  0.0033327470865091
  0.6575805880662374  0.3218163561534206  0.0126515947015657
  0.1689304794529674  0.8351351052341360  0.7511959663349387
  0.8271078197702877  0.4947710528903302  0.2625739361272376
 
  0.00000000E+00  0.00000000E+00  0.00000000E+00
  0.00000000E+00  0.00000000E+00  0.00000000E+00
  0.00000000E+00  0.00000000E+00  0.00000000E+00
  0.00000000E+00  0.00000000E+00  0.00000000E+00
  0.00000000E+00  0.00000000E+00  0.00000000E+00
  0.00000000E+00  0.00000000E+00  0.00000000E+00
  0.00000000E+00  0.00000000E+00  0.00000000E+00
  0.00000000E+00  0.00000000E+00  0.00000000E+00
  0.00000000E+00  0.00000000E+00  0.00000000E+00
  0.00000000E+00  0.00000000E+00  0.00000000E+00
  0.00000000E+00  0.00000000E+00  0.00000000E+00
  0.00000000E+00  0.00000000E+00  0.00000000E+00
  0.00000000E+00  0.00000000E+00  0.00000000E+00
  0.00000000E+00  0.00000000E+00  0.00000000E+00
  0.00000000E+00  0.00000000E+00  0.00000000E+00
  0.00000000E+00  0.00000000E+00  0.00000000E+00
  0.00000000E+00  0.00000000E+00  0.00000000E+00
  0.00000000E+00  0.00000000E+00  0.00000000E+00
  0.00000000E+00  0.00000000E+00  0.00000000E+00
  0.00000000E+00  0.00000000E+00  0.00000000E+00
  0.00000000E+00  0.00000000E+00  0.00000000E+00
  0.00000000E+00  0.00000000E+00  0.00000000E+00
  0.00000000E+00  0.00000000E+00  0.00000000E+00
  0.00000000E+00  0.00000000E+00  0.00000000E+00
  0.00000000E+00  0.00000000E+00  0.00000000E+00
  0.00000000E+00  0.00000000E+00  0.00000000E+00
  0.00000000E+00  0.00000000E+00  0.00000000E+00
  0.00000000E+00  0.00000000E+00  0.00000000E+00
  0.00000000E+00  0.00000000E+00  0.00000000E+00
  0.00000000E+00  0.00000000E+00  0.00000000E+00
  0.00000000E+00  0.00000000E+00  0.00000000E+00
  0.00000000E+00  0.00000000E+00  0.00000000E+00
  0.00000000E+00  0.00000000E+00  0.00000000E+00
  0.00000000E+00  0.00000000E+00  0.00000000E+00
  0.00000000E+00  0.00000000E+00  0.00000000E+00
  0.00000000E+00  0.00000000E+00  0.00000000E+00
