title                                   
    1.000000000000000     
     9.8481057329925630    0.0186708468394077   -0.0191044706445566
     0.0185795226926772    9.9780579511205438   -0.0551824720123060
    -0.0127319759494562   -0.0368343610918689    6.5879900536378893
   Hf   Mo   Nb   Ta   Zr
     3    11     4    15     3
Direct
  0.6605953321823653  0.3318207404777540 -0.0106903204269775
  0.6547363459566889  0.3272787822993670  0.5030612311897699
  0.8346231469567346  0.5166733941245522  0.7472310713441414
  0.6672939087689989 -0.0035813194447994 -0.0000113100111352
  0.5024921272085568  0.8359862309378283  0.2455084251675097
 -0.0003525566109824 -0.0061533504447518  0.4983525900353208
  0.8324683958474405  0.8347672755481639  0.2542667851312643
  0.3343299242526339 -0.0035600303327003 -0.0025302186722475
  0.6631836422507573  0.6738550658243061  0.4981070215117495
  0.4997746744077037  0.5135024228484081  0.7503556435667769
  0.3340865666676691  0.6683878738160660  0.0036748006584871
  0.1679293974495014  0.8371096029077369  0.2493476339525694
  0.4972101410048139  0.1538161535844834  0.7452068222779852
  0.1652453404864267  0.5029613903583866  0.2467619611624368
  0.5015768227398226  0.5131283770868690  0.2484129428389172
  0.1712583159431699  0.8358324707520257  0.7573203062799024
  0.3359188506385213 -0.0035077126328958  0.4983657917175046
  0.1661576604002163  0.1568907353295841  0.7484513236327640
  0.0063732533296799  0.6733104758314469  0.4902447909585675
  0.1711415349273024  0.1563511435648793  0.2483223282520733
  0.5031447433361445  0.8357480718150465  0.7577816949319026
  0.6624152298049756  0.6730096473894152  0.0087378431169259
  0.0028172366358284 -0.0082175011915054  0.0075047493294645
  0.8376793587971105  0.1493142956233044  0.7511099785533187
  0.8349430903570585  0.1544099574418483  0.2456476617278047
  0.0039183817870246  0.6749266793337936  0.0181451936252623
  0.8290794860635543  0.8338720481886643  0.7513510142978560
  0.3356965072071609  0.3354188774150982  0.4995851957977164
  0.0023908292614135  0.3326972466068616  0.0081824826522121
  0.1634066689621071  0.5087391211236576  0.7583485778493934
  0.8282683076179661  0.5105207216578065  0.2551203773156032
  0.6647736385617192 -0.0021026193979642  0.4957920077026696
  0.4938382878301258  0.1507485645087285  0.2388115482537478
  0.3356142614802651  0.3362425611099954 -0.0073841700308665
  0.3310806287290957  0.6662986581363703  0.4947559230794400
  0.0048905187604298  0.3335039478021699  0.4967503012301686
 
  0.00000000E+00  0.00000000E+00  0.00000000E+00
  0.00000000E+00  0.00000000E+00  0.00000000E+00
  0.00000000E+00  0.00000000E+00  0.00000000E+00
  0.00000000E+00  0.00000000E+00  0.00000000E+00
  0.00000000E+00  0.00000000E+00  0.00000000E+00
  0.00000000E+00  0.00000000E+00  0.00000000E+00
  0.00000000E+00  0.00000000E+00  0.00000000E+00
  0.00000000E+00  0.00000000E+00  0.00000000E+00
  0.00000000E+00  0.00000000E+00  0.00000000E+00
  0.00000000E+00  0.00000000E+00  0.00000000E+00
  0.00000000E+00  0.00000000E+00  0.00000000E+00
  0.00000000E+00  0.00000000E+00  0.00000000E+00
  0.00000000E+00  0.00000000E+00  0.00000000E+00
  0.00000000E+00  0.00000000E+00  0.00000000E+00
  0.00000000E+00  0.00000000E+00  0.00000000E+00
  0.00000000E+00  0.00000000E+00  0.00000000E+00
  0.00000000E+00  0.00000000E+00  0.00000000E+00
  0.00000000E+00  0.00000000E+00  0.00000000E+00
  0.00000000E+00  0.00000000E+00  0.00000000E+00
  0.00000000E+00  0.00000000E+00  0.00000000E+00
  0.00000000E+00  0.00000000E+00  0.00000000E+00
  0.00000000E+00  0.00000000E+00  0.00000000E+00
  0.00000000E+00  0.00000000E+00  0.00000000E+00
  0.00000000E+00  0.00000000E+00  0.00000000E+00
  0.00000000E+00  0.00000000E+00  0.00000000E+00
  0.00000000E+00  0.00000000E+00  0.00000000E+00
  0.00000000E+00  0.00000000E+00  0.00000000E+00
  0.00000000E+00  0.00000000E+00  0.00000000E+00
  0.00000000E+00  0.00000000E+00  0.00000000E+00
  0.00000000E+00  0.00000000E+00  0.00000000E+00
  0.00000000E+00  0.00000000E+00  0.00000000E+00
  0.00000000E+00  0.00000000E+00  0.00000000E+00
  0.00000000E+00  0.00000000E+00  0.00000000E+00
  0.00000000E+00  0.00000000E+00  0.00000000E+00
  0.00000000E+00  0.00000000E+00  0.00000000E+00
  0.00000000E+00  0.00000000E+00  0.00000000E+00
