title                                   
    1.000000000000000     
     9.6647133187260668   -0.0030473770900215    0.0150963258517266
    -0.0030255324472199    9.6570109758060276   -0.0040609682175368
     0.0100677975822282   -0.0027122619312670    6.4220295326667465
   Hf   Mo   Nb   Ti   W 
     1     2     6    12    15
Direct
  0.1682342272785204  0.1652373702924854  0.7526086031585251
  0.8321379191624562  0.5036415282804175  0.7460734438509631
  0.8338434545434444  0.5021692269750823  0.2535837915652283
  0.5016200251019705  0.1700666115979332  0.2563592061266518
  0.3374189931536705  0.3373460578940349  0.4952150132523471
  0.1666620647051573  0.5019791306368819  0.7463164609520713
  0.5016448605439842  0.5000887223867180  0.7512866211796634
  0.8358505275786258  0.1627678085729099  0.7465536846236808
  0.6626445746825541 -0.0018014795235401  0.5040396266361701
  0.6741877117874855  0.3392761617604810  0.0035616524416903
  0.8390748553938768  0.1604458461716912  0.2567834594556843
  0.6560054016533088 -0.0092262447896648  0.0023648887355098
  0.3368908146478286  0.6745756554850190  0.4943445265543110
  0.8364661960414354  0.8320360303754286  0.7455391130355894
  0.4980456217139792  0.1702413097489029  0.7505539750290685
  0.3390551794572488 -0.0067672252179586  0.0096942976795472
  0.8344483460544326  0.8336657698064841  0.2543314405430210
  0.1596692377207996  0.8358695772476401  0.7482863961834085
 -0.0114096458693481  0.3430606580840169  0.0021616766052779
  0.1693763026387098  0.5005340845844353  0.2452916169413832
 -0.0064693864436848  0.6581887323883927 -0.0009549259531728
  0.5010194951557019  0.5024091679567724  0.2468864200893753
  0.3342813773088362 -0.0082841003627889  0.4916322064429766
  0.1634298477756457  0.1674819333394366  0.2523713778391646
 -0.0017853587987709  0.3354615524685395  0.4917473118300627
 -0.0011921588883858  0.6644336521002948  0.4929393845333636
  0.3375909322066034  0.3372408458374797  0.0069930980948059
  0.0018047917691194 -0.0038622791199912  0.0078331036146063
  0.6636039421584869  0.6658886461547031  0.4994826454717052
  0.5011512487739519  0.8296772260254901  0.2511279199922360
  0.6668841796580411  0.6645898433267775 -0.0010035901742993
  0.0013766438066030 -0.0027884857476864  0.4966987820117181
  0.1619252412732765  0.8310734619550857  0.2484314996754603
  0.3339153396963099  0.6718843631297486  0.0014479340224958
  0.6721917992129663  0.3392543580924250  0.4994050905113249
  0.4984053973451598  0.8321444820859213  0.7500122474483852
 
  0.00000000E+00  0.00000000E+00  0.00000000E+00
  0.00000000E+00  0.00000000E+00  0.00000000E+00
  0.00000000E+00  0.00000000E+00  0.00000000E+00
  0.00000000E+00  0.00000000E+00  0.00000000E+00
  0.00000000E+00  0.00000000E+00  0.00000000E+00
  0.00000000E+00  0.00000000E+00  0.00000000E+00
  0.00000000E+00  0.00000000E+00  0.00000000E+00
  0.00000000E+00  0.00000000E+00  0.00000000E+00
  0.00000000E+00  0.00000000E+00  0.00000000E+00
  0.00000000E+00  0.00000000E+00  0.00000000E+00
  0.00000000E+00  0.00000000E+00  0.00000000E+00
  0.00000000E+00  0.00000000E+00  0.00000000E+00
  0.00000000E+00  0.00000000E+00  0.00000000E+00
  0.00000000E+00  0.00000000E+00  0.00000000E+00
  0.00000000E+00  0.00000000E+00  0.00000000E+00
  0.00000000E+00  0.00000000E+00  0.00000000E+00
  0.00000000E+00  0.00000000E+00  0.00000000E+00
  0.00000000E+00  0.00000000E+00  0.00000000E+00
  0.00000000E+00  0.00000000E+00  0.00000000E+00
  0.00000000E+00  0.00000000E+00  0.00000000E+00
  0.00000000E+00  0.00000000E+00  0.00000000E+00
  0.00000000E+00  0.00000000E+00  0.00000000E+00
  0.00000000E+00  0.00000000E+00  0.00000000E+00
  0.00000000E+00  0.00000000E+00  0.00000000E+00
  0.00000000E+00  0.00000000E+00  0.00000000E+00
  0.00000000E+00  0.00000000E+00  0.00000000E+00
  0.00000000E+00  0.00000000E+00  0.00000000E+00
  0.00000000E+00  0.00000000E+00  0.00000000E+00
  0.00000000E+00  0.00000000E+00  0.00000000E+00
  0.00000000E+00  0.00000000E+00  0.00000000E+00
  0.00000000E+00  0.00000000E+00  0.00000000E+00
  0.00000000E+00  0.00000000E+00  0.00000000E+00
  0.00000000E+00  0.00000000E+00  0.00000000E+00
  0.00000000E+00  0.00000000E+00  0.00000000E+00
  0.00000000E+00  0.00000000E+00  0.00000000E+00
  0.00000000E+00  0.00000000E+00  0.00000000E+00
