title                                   
    1.000000000000000     
     9.8298688025015544   -0.0373945992882410   -0.0155060284154565
    -0.0373252606028869    9.8845677466925927   -0.0056879516318450
    -0.0103554121733859   -0.0037374999850156    6.5652002729110928
   Hf   Mo   Nb   Ta   W 
     7     8     7     7     7
Direct
  0.6677727166570225  0.3254708884078795  0.4905234298041778
 -0.0048327373875709  0.3289519889215419  0.5015321988043963
  0.4988621315605828  0.4941027603113282  0.7571358865088442
  0.3317683109478767  0.6703817619757634  0.0039904380512198
  0.1781424751442030  0.1641173190718263  0.2531788945603441
 -0.0031223085366521 -0.0022949975273576 -0.0149303598638567
  0.8303622047290335  0.5113140149808548  0.7590929166386224
  0.0054251995564623  0.6699879972090514  0.4990130959658311
  0.4989929027681795  0.4989664427193415  0.2490438083330834
  0.5010166189329875  0.8389471392952830  0.7471504047694248
  0.8312048751080023  0.8287476177538807  0.7432311939138929
  0.3339967889181928  0.3362570462608243  0.0074145223408364
  0.3349030232022003  0.3356210220394385  0.4965448787043981
  0.3375408395724931 -0.0028154636831628  0.5046697866753267
  0.8294058324747937  0.1589131259849990  0.7481628924792255
  0.8326138365118008  0.8297213004910690  0.2542945395921306
  0.0085380939239760  0.6722486220406738 -0.0011049785996727
  0.6677406108015317  0.0007523422502412 -0.0077901220487866
  0.1674987348470257  0.4976467433992678  0.7486394775479738
  0.8309921835876788  0.1570256191931458  0.2482266925670588
  0.1773312914094530  0.1646112799757093  0.7454797647107894
  0.4935506167848961  0.1651599158590675  0.7502228216392305
  0.6598013099779091  0.6742073797805483  0.4993940047739929
 -0.0011305431618245  0.3306466509879836 -0.0013719686559770
  0.8350558428250665  0.5135568205754815  0.2439229540769703
  0.3333732138312950  0.6673554515706684  0.4981284250064320
  0.5022786779066319  0.8425439970710351  0.2523652703045765
  0.6658706060733275  0.3251601216141133  0.0139679100027659
  0.1674991494468935  0.8414312077179640  0.2613847286179081
  0.6670861663898079  0.0004008178075163  0.5030278156632070
 -0.0044365384127014 -0.0031907830618861  0.5083082072868708
  0.3375045121516943 -0.0049869898954591 -0.0069349193407570
  0.1664575917620490  0.8355046362734042  0.7379918083793983
  0.6618008415784229  0.6745346676503016  0.0069790063730417
  0.4925969903049785  0.1614127322178720  0.2474409636780870
  0.1665379378122801  0.4975888027597889  0.2516736107389937
 
  0.00000000E+00  0.00000000E+00  0.00000000E+00
  0.00000000E+00  0.00000000E+00  0.00000000E+00
  0.00000000E+00  0.00000000E+00  0.00000000E+00
  0.00000000E+00  0.00000000E+00  0.00000000E+00
  0.00000000E+00  0.00000000E+00  0.00000000E+00
  0.00000000E+00  0.00000000E+00  0.00000000E+00
  0.00000000E+00  0.00000000E+00  0.00000000E+00
  0.00000000E+00  0.00000000E+00  0.00000000E+00
  0.00000000E+00  0.00000000E+00  0.00000000E+00
  0.00000000E+00  0.00000000E+00  0.00000000E+00
  0.00000000E+00  0.00000000E+00  0.00000000E+00
  0.00000000E+00  0.00000000E+00  0.00000000E+00
  0.00000000E+00  0.00000000E+00  0.00000000E+00
  0.00000000E+00  0.00000000E+00  0.00000000E+00
  0.00000000E+00  0.00000000E+00  0.00000000E+00
  0.00000000E+00  0.00000000E+00  0.00000000E+00
  0.00000000E+00  0.00000000E+00  0.00000000E+00
  0.00000000E+00  0.00000000E+00  0.00000000E+00
  0.00000000E+00  0.00000000E+00  0.00000000E+00
  0.00000000E+00  0.00000000E+00  0.00000000E+00
  0.00000000E+00  0.00000000E+00  0.00000000E+00
  0.00000000E+00  0.00000000E+00  0.00000000E+00
  0.00000000E+00  0.00000000E+00  0.00000000E+00
  0.00000000E+00  0.00000000E+00  0.00000000E+00
  0.00000000E+00  0.00000000E+00  0.00000000E+00
  0.00000000E+00  0.00000000E+00  0.00000000E+00
  0.00000000E+00  0.00000000E+00  0.00000000E+00
  0.00000000E+00  0.00000000E+00  0.00000000E+00
  0.00000000E+00  0.00000000E+00  0.00000000E+00
  0.00000000E+00  0.00000000E+00  0.00000000E+00
  0.00000000E+00  0.00000000E+00  0.00000000E+00
  0.00000000E+00  0.00000000E+00  0.00000000E+00
  0.00000000E+00  0.00000000E+00  0.00000000E+00
  0.00000000E+00  0.00000000E+00  0.00000000E+00
  0.00000000E+00  0.00000000E+00  0.00000000E+00
  0.00000000E+00  0.00000000E+00  0.00000000E+00
