title                                   
    1.000000000000000     
     9.9257813436802795   -0.0644431118303768    0.0724981148040947
    -0.0642766500279418    9.9537400937111080    0.0212657086576864
     0.0484731578008022    0.0142877288211465    6.6036881623392691
   Hf   Mo   Nb   Ti
     9     9     9     9
Direct
  0.8291466516718592  0.1638658386698483  0.2439545853138379
  0.3224680054652115  0.0019520326312666  0.5024341218188947
  0.0058765564116584 -0.0166424398243744  0.0012219258912575
  0.3247634463515874  0.0061852952742235 -0.0013320232875813
  0.6827187908486435  0.6623232326585053  0.0173148328569991
  0.1725929137248229  0.5009653139355343  0.2455988344105306
  0.6624905202539104  0.3422846572179241  0.5070857319323738
  0.5075808620949046  0.8328651244988092  0.7525908889111645
  0.3415165005247539  0.3260259622762269  0.5204003950227852
 -0.0008614853648497  0.6725636252003510  0.5005702940700157
  0.1638535547810150  0.8210874257279168  0.7443059687696600
  0.8356893916818241  0.8343500083436424  0.2639938266326892
  0.6669916394759363 -0.0006778311266529  0.4979549900596080
  0.8441268790089028  0.4998379671275818  0.2513359634637015
  0.3304319868935022  0.6693173687026409  0.0010091838231732
  0.1701462822783778  0.5030774112695977  0.7536671132117391
  0.5161008121377531  0.1558274179434977  0.7570217282778681
  0.6677738159516106 -0.0015156956582685 -0.0004574730593015
  0.1548251525499019  0.1852269609129209  0.2516725428867105
  0.1407833711555302  0.1722206848909096  0.7444421631648125
  0.5021476459963216  0.8313688017745356  0.2545257519473305
  0.5182173720683404  0.1533621096679194  0.2447684813996166
 -0.0038552087723078  0.3417775766396947  0.5021690652789426
 -0.0018309962977732  0.6675873029690989 -0.0062021249177038
  0.6758597983869026  0.6621791619376869  0.4874578905207962
  0.8461792123316567  0.5145271435939153  0.7369229767048574
  0.3267995665199992  0.6642981720705261  0.5161751906149442
  0.4842969047219959  0.5105877632364548  0.2394589711997642
  0.8302427872601955  0.1552662765931841  0.7463067758914244
  0.4850370819073253  0.5185369426962474  0.7769624304108982
  0.1680756072544952  0.8045629594270823  0.2540205335976357
 -0.0023933806062449  0.3488832845200305 -0.0153066873583934
  0.0063280290184447 -0.0094359785446726  0.4910111420698283
  0.6653033913534711  0.3399938042501609 -0.0047609806527499
  0.8219983837041444  0.8454134130025732  0.7347334218897505
  0.3385781572561785  0.3199509054934632 -0.0130284327678791
 
  0.00000000E+00  0.00000000E+00  0.00000000E+00
  0.00000000E+00  0.00000000E+00  0.00000000E+00
  0.00000000E+00  0.00000000E+00  0.00000000E+00
  0.00000000E+00  0.00000000E+00  0.00000000E+00
  0.00000000E+00  0.00000000E+00  0.00000000E+00
  0.00000000E+00  0.00000000E+00  0.00000000E+00
  0.00000000E+00  0.00000000E+00  0.00000000E+00
  0.00000000E+00  0.00000000E+00  0.00000000E+00
  0.00000000E+00  0.00000000E+00  0.00000000E+00
  0.00000000E+00  0.00000000E+00  0.00000000E+00
  0.00000000E+00  0.00000000E+00  0.00000000E+00
  0.00000000E+00  0.00000000E+00  0.00000000E+00
  0.00000000E+00  0.00000000E+00  0.00000000E+00
  0.00000000E+00  0.00000000E+00  0.00000000E+00
  0.00000000E+00  0.00000000E+00  0.00000000E+00
  0.00000000E+00  0.00000000E+00  0.00000000E+00
  0.00000000E+00  0.00000000E+00  0.00000000E+00
  0.00000000E+00  0.00000000E+00  0.00000000E+00
  0.00000000E+00  0.00000000E+00  0.00000000E+00
  0.00000000E+00  0.00000000E+00  0.00000000E+00
  0.00000000E+00  0.00000000E+00  0.00000000E+00
  0.00000000E+00  0.00000000E+00  0.00000000E+00
  0.00000000E+00  0.00000000E+00  0.00000000E+00
  0.00000000E+00  0.00000000E+00  0.00000000E+00
  0.00000000E+00  0.00000000E+00  0.00000000E+00
  0.00000000E+00  0.00000000E+00  0.00000000E+00
  0.00000000E+00  0.00000000E+00  0.00000000E+00
  0.00000000E+00  0.00000000E+00  0.00000000E+00
  0.00000000E+00  0.00000000E+00  0.00000000E+00
  0.00000000E+00  0.00000000E+00  0.00000000E+00
  0.00000000E+00  0.00000000E+00  0.00000000E+00
  0.00000000E+00  0.00000000E+00  0.00000000E+00
  0.00000000E+00  0.00000000E+00  0.00000000E+00
  0.00000000E+00  0.00000000E+00  0.00000000E+00
  0.00000000E+00  0.00000000E+00  0.00000000E+00
  0.00000000E+00  0.00000000E+00  0.00000000E+00
