title                                   
    1.000000000000000     
     9.5491300401828330   -0.0083205039011204    0.0669796262615734
    -0.0079984539743440    9.5984889839608591   -0.0396393216673848
     0.0449940729612437   -0.0264765654392350    6.4602609030903198
   Nb   Ta   Ti   V    Zr
     3     3    11    15     4
Direct
  0.8323358189829052  0.8276687424582110  0.7375276323178596
  0.1644640557505588  0.5055049690717895  0.2509988879567978
  0.6659956246702812  0.3346444788626177  0.4987521257158133
  0.1680575658090437  0.1645128594082534  0.7550486019268557
  0.4904158271387597  0.5061059139047168  0.7512876384388635
  0.8367124578943850  0.1529696638479091  0.7398253999749764
  0.3438420596099164 -0.0211652761751949 -0.0171881268056177
  0.0082011925154570  0.3444107685699687  0.5260696604235706
  0.4959448065905807  0.1641307249768418  0.7362727477004254
  0.4967441173916435  0.1536177201045575  0.2655035105007625
  0.6595972696643949  0.6949154011723790  0.0095678259476699
  0.8493159900796441  0.5105821093978763  0.2640464659443542
  0.0085847089954524  0.6705932171514961 -0.0074151466863256
  0.8323076039483306  0.5139199686604855  0.7382225632405037
  0.1713546558146597  0.8259359481980472  0.2742915099820531
  0.0114220169555609 -0.0311270757817629 -0.0175568693803801
  0.6562956539030939  0.6856511129315450  0.4826809195487115
  0.4959234390160879  0.8507555156771173  0.2604049105771699
  0.6608859405497086 -0.0160168215016593  0.4954398222172599
  0.1691246753705057  0.5012684268988672  0.7562660087506998
  0.3282417840018671  0.6750391424651475  0.5252670078294325
  0.3141995634635922  0.3465292483516590 -0.0224472865648194
  0.3179315507817103  0.3428492600072124  0.5284759782503599
  0.4972447265902141  0.8386411729112024  0.7350881087532625
  0.8360057610274331  0.8440644668506446  0.2545305210464549
  0.1736999224419642  0.8228866377236371  0.7232201345948351
  0.0126154611272468  0.6636519771240481  0.5112235804447657
  0.3207886846634759  0.6752519295422433 -0.0245317783926885
  0.6577453755435011 -0.0127668092213195 -0.0019794159410944
  0.3440512173953267 -0.0153683661207912  0.5201781029590237
 -0.0006774506411801 -0.0184448519938824  0.5156498580154989
  0.0062783746143829  0.3468007253552552 -0.0168010476689601
  0.8431451072645285  0.1502225504228425  0.2506712269615483
  0.1788921355592894  0.1646965460808094  0.2513623066295073
  0.4764020488150015  0.5072026901128373  0.2488718968652631
  0.6759102567006749  0.3298653125543941  0.0011747179255898
 
  0.00000000E+00  0.00000000E+00  0.00000000E+00
  0.00000000E+00  0.00000000E+00  0.00000000E+00
  0.00000000E+00  0.00000000E+00  0.00000000E+00
  0.00000000E+00  0.00000000E+00  0.00000000E+00
  0.00000000E+00  0.00000000E+00  0.00000000E+00
  0.00000000E+00  0.00000000E+00  0.00000000E+00
  0.00000000E+00  0.00000000E+00  0.00000000E+00
  0.00000000E+00  0.00000000E+00  0.00000000E+00
  0.00000000E+00  0.00000000E+00  0.00000000E+00
  0.00000000E+00  0.00000000E+00  0.00000000E+00
  0.00000000E+00  0.00000000E+00  0.00000000E+00
  0.00000000E+00  0.00000000E+00  0.00000000E+00
  0.00000000E+00  0.00000000E+00  0.00000000E+00
  0.00000000E+00  0.00000000E+00  0.00000000E+00
  0.00000000E+00  0.00000000E+00  0.00000000E+00
  0.00000000E+00  0.00000000E+00  0.00000000E+00
  0.00000000E+00  0.00000000E+00  0.00000000E+00
  0.00000000E+00  0.00000000E+00  0.00000000E+00
  0.00000000E+00  0.00000000E+00  0.00000000E+00
  0.00000000E+00  0.00000000E+00  0.00000000E+00
  0.00000000E+00  0.00000000E+00  0.00000000E+00
  0.00000000E+00  0.00000000E+00  0.00000000E+00
  0.00000000E+00  0.00000000E+00  0.00000000E+00
  0.00000000E+00  0.00000000E+00  0.00000000E+00
  0.00000000E+00  0.00000000E+00  0.00000000E+00
  0.00000000E+00  0.00000000E+00  0.00000000E+00
  0.00000000E+00  0.00000000E+00  0.00000000E+00
  0.00000000E+00  0.00000000E+00  0.00000000E+00
  0.00000000E+00  0.00000000E+00  0.00000000E+00
  0.00000000E+00  0.00000000E+00  0.00000000E+00
  0.00000000E+00  0.00000000E+00  0.00000000E+00
  0.00000000E+00  0.00000000E+00  0.00000000E+00
  0.00000000E+00  0.00000000E+00  0.00000000E+00
  0.00000000E+00  0.00000000E+00  0.00000000E+00
  0.00000000E+00  0.00000000E+00  0.00000000E+00
  0.00000000E+00  0.00000000E+00  0.00000000E+00
