title                                   
    1.000000000000000     
     9.5163888239632701   -0.0041288883771742    0.0006389847105383
    -0.0041114539682222    9.4915170556074813   -0.0082833292276176
     0.0004297175091688   -0.0055178107482066    6.3381313915876847
   Nb   V    W 
    12    12    12
Direct
  0.8324075914308119  0.8320316829165499  0.7476802032615081
  0.1683695430328774  0.4977169357896253  0.2518966132543346
 -0.0035269114947585  0.3324021294834270  0.0018261906799181
  0.6628885534934700  0.0008758425504506  0.4960467358823981
  0.8305655344366326  0.1675987059351489  0.7550339596180345
  0.1673863497529202  0.8361467352701294  0.2522904144163972
  0.5038915453422383  0.4977785128558837  0.7513901052821987
  0.6661645583546335  0.3351475955972173  0.4970848465495003
  0.1675283852867676  0.4979234649088626  0.7481197994110186
  0.1686959320194722  0.8368101682126894  0.7459387199641624
 -0.0018879089216308  0.3337444196372992  0.4987548282282118
 -0.0063144415750448  0.6656782193236934  0.0032536365750903
  0.6633882630655673  0.0028603303380384  0.0045493770729925
  0.6651516186416551  0.3330026031676487  0.0064777667199611
 -0.0109447300727150  0.6651798724761666  0.4959444079185044
  0.1723579174598356  0.1622336658548247  0.2503120625812392
  0.3370642188438100  0.0045379643052275  0.4992796608489596
  0.8284638495955595  0.5071532923842746  0.7493625320341761
  0.4956153595630626  0.1656375456315841  0.2446831039848963
  0.8274523853223660  0.5080610988262950  0.2526918629126687
  0.1729813473557326  0.1620334944020462  0.7487418990715882
  0.4935262555460340  0.1647328385131648  0.7555458736792517
  0.8321522750874558  0.8318764907461450  0.2501622946985695
  0.6710352048467126  0.6674317908351292  0.4956377890008232
  0.3367268025707787  0.3243629998438328  0.0012556062129024
  0.3391815715249810  0.6676681621334162  0.4991076379880467
  0.8311653769741385  0.1646929352252838  0.2456979365026791
  0.0007038475250814  0.0031672164091163  0.0021609547127101
  0.3381901648823791  0.6667394667356268  0.0001266905726582
  0.3352695729638481  0.3217534401115692  0.4989215439878187
  0.0018897765890760  0.0027652503102787  0.4962067997023544
  0.5011266592618677  0.8353347594605446  0.7505682799335724
  0.3380264685070812  0.0039248796474277  0.0001674275963539
  0.5022706262271742  0.8347670746985676  0.2494223287032410
  0.5025998114087944  0.4985464751247989  0.2487212408901649
  0.6684366251513346  0.6676819403380155  0.0049388695510945
 
  0.00000000E+00  0.00000000E+00  0.00000000E+00
  0.00000000E+00  0.00000000E+00  0.00000000E+00
  0.00000000E+00  0.00000000E+00  0.00000000E+00
  0.00000000E+00  0.00000000E+00  0.00000000E+00
  0.00000000E+00  0.00000000E+00  0.00000000E+00
  0.00000000E+00  0.00000000E+00  0.00000000E+00
  0.00000000E+00  0.00000000E+00  0.00000000E+00
  0.00000000E+00  0.00000000E+00  0.00000000E+00
  0.00000000E+00  0.00000000E+00  0.00000000E+00
  0.00000000E+00  0.00000000E+00  0.00000000E+00
  0.00000000E+00  0.00000000E+00  0.00000000E+00
  0.00000000E+00  0.00000000E+00  0.00000000E+00
  0.00000000E+00  0.00000000E+00  0.00000000E+00
  0.00000000E+00  0.00000000E+00  0.00000000E+00
  0.00000000E+00  0.00000000E+00  0.00000000E+00
  0.00000000E+00  0.00000000E+00  0.00000000E+00
  0.00000000E+00  0.00000000E+00  0.00000000E+00
  0.00000000E+00  0.00000000E+00  0.00000000E+00
  0.00000000E+00  0.00000000E+00  0.00000000E+00
  0.00000000E+00  0.00000000E+00  0.00000000E+00
  0.00000000E+00  0.00000000E+00  0.00000000E+00
  0.00000000E+00  0.00000000E+00  0.00000000E+00
  0.00000000E+00  0.00000000E+00  0.00000000E+00
  0.00000000E+00  0.00000000E+00  0.00000000E+00
  0.00000000E+00  0.00000000E+00  0.00000000E+00
  0.00000000E+00  0.00000000E+00  0.00000000E+00
  0.00000000E+00  0.00000000E+00  0.00000000E+00
  0.00000000E+00  0.00000000E+00  0.00000000E+00
  0.00000000E+00  0.00000000E+00  0.00000000E+00
  0.00000000E+00  0.00000000E+00  0.00000000E+00
  0.00000000E+00  0.00000000E+00  0.00000000E+00
  0.00000000E+00  0.00000000E+00  0.00000000E+00
  0.00000000E+00  0.00000000E+00  0.00000000E+00
  0.00000000E+00  0.00000000E+00  0.00000000E+00
  0.00000000E+00  0.00000000E+00  0.00000000E+00
  0.00000000E+00  0.00000000E+00  0.00000000E+00
