title                                   
    1.000000000000000     
    10.0837333301534393    0.0883451647730632   -0.1182460732513534
     0.0875562780551073   10.0722343161863463    0.0188751954525888
    -0.0785511812378937    0.0108280200106867    6.9965891901743893
   Hf   V    Zr
    12    12    12
Direct
  0.4962340479446420  0.8380261404673278  0.7819323586112549
  0.6720354199387403  0.3160787640594738  0.0316902122437750
  0.1603768339906013  0.5076707032847975  0.2777984532353153
  0.0058807535016490  0.6388928167116916 -0.0508265312396328
  0.6640194668939939 -0.0017242464450683  0.4837918870201832
  0.6451970450692268  0.0110543411943415  0.0465712661323136
  0.6800418738847321  0.3315906920373459  0.4915985633102959
  0.4942865259798374  0.1724830167370122  0.7313615736338694
  0.3547271773238463 -0.0053198133221210  0.4594960261575993
  0.3157418656425992  0.3401106700268822 -0.0021832983870919
  0.8292673276625060  0.1398486863106145  0.7709009813662456
  0.8432173321446808  0.5155639464774452  0.2466122214455161
  0.6906126603996180  0.6718366590455270 -0.0373251328978006
  0.1964240954247175  0.5163799084804584  0.7193830189175057
  0.1801005478538270  0.1949276387046753  0.2876849872872831
 -0.0142145175425806  0.6621397623006212  0.5359333574053406
  0.8389394002031095  0.8269708116386900  0.7564727277017979
  0.8051128477269546  0.5156341946521917  0.7597093240453288
  0.0011900635310624 -0.0199427534622778 -0.0373433196673132
  0.5005560392204962  0.8039641630161797  0.1843323851228669
  0.4784628442521115  0.2042455477752278  0.2892672047663575
 -0.0342192620463834 -0.0427847622746315  0.5528438396675991
  0.3266351076157611  0.3294573224164660  0.4842720068305840
  0.3182464019567483  0.6570547312171400 -0.0106562730067862
  0.5046672959466756  0.5130339461756135  0.2204223090197848
  0.6675493126028974  0.6823462590741024  0.5036068850811600
  0.0091094969023776  0.3237421848288586  0.0017224806432815
 -0.0040741652652282  0.3640440012213078  0.5565588047409413
  0.3471694027731153  0.6890436295635896  0.4719359011663582
  0.1576873022283615  0.1450349147618952  0.7119212203811930
  0.1704289763479064  0.8291646715644985  0.7461091904084074
  0.4996584874593686  0.5013596070414706  0.7529793381143054
  0.8869632542213416  0.1383860247383606  0.2724603705267239
  0.8439461567399317  0.8238498081315957  0.2288109974912369
  0.3295546502919396  0.0211916196203389  0.0308485696043481
  0.1384679311788145  0.8446443922283591  0.2493060931198541
 
  0.00000000E+00  0.00000000E+00  0.00000000E+00
  0.00000000E+00  0.00000000E+00  0.00000000E+00
  0.00000000E+00  0.00000000E+00  0.00000000E+00
  0.00000000E+00  0.00000000E+00  0.00000000E+00
  0.00000000E+00  0.00000000E+00  0.00000000E+00
  0.00000000E+00  0.00000000E+00  0.00000000E+00
  0.00000000E+00  0.00000000E+00  0.00000000E+00
  0.00000000E+00  0.00000000E+00  0.00000000E+00
  0.00000000E+00  0.00000000E+00  0.00000000E+00
  0.00000000E+00  0.00000000E+00  0.00000000E+00
  0.00000000E+00  0.00000000E+00  0.00000000E+00
  0.00000000E+00  0.00000000E+00  0.00000000E+00
  0.00000000E+00  0.00000000E+00  0.00000000E+00
  0.00000000E+00  0.00000000E+00  0.00000000E+00
  0.00000000E+00  0.00000000E+00  0.00000000E+00
  0.00000000E+00  0.00000000E+00  0.00000000E+00
  0.00000000E+00  0.00000000E+00  0.00000000E+00
  0.00000000E+00  0.00000000E+00  0.00000000E+00
  0.00000000E+00  0.00000000E+00  0.00000000E+00
  0.00000000E+00  0.00000000E+00  0.00000000E+00
  0.00000000E+00  0.00000000E+00  0.00000000E+00
  0.00000000E+00  0.00000000E+00  0.00000000E+00
  0.00000000E+00  0.00000000E+00  0.00000000E+00
  0.00000000E+00  0.00000000E+00  0.00000000E+00
  0.00000000E+00  0.00000000E+00  0.00000000E+00
  0.00000000E+00  0.00000000E+00  0.00000000E+00
  0.00000000E+00  0.00000000E+00  0.00000000E+00
  0.00000000E+00  0.00000000E+00  0.00000000E+00
  0.00000000E+00  0.00000000E+00  0.00000000E+00
  0.00000000E+00  0.00000000E+00  0.00000000E+00
  0.00000000E+00  0.00000000E+00  0.00000000E+00
  0.00000000E+00  0.00000000E+00  0.00000000E+00
  0.00000000E+00  0.00000000E+00  0.00000000E+00
  0.00000000E+00  0.00000000E+00  0.00000000E+00
  0.00000000E+00  0.00000000E+00  0.00000000E+00
  0.00000000E+00  0.00000000E+00  0.00000000E+00
