title                                   
    1.000000000000000     
     9.3145382858517252   -0.0100686970985990   -0.0294117180007779
    -0.0100481642206831    9.3025531827477490    0.0372633012607314
    -0.0195955321770136    0.0248459642593247    6.2116577520149585
   Cr   Mo   Ta   W    Zr
    15    11     3     3     4
Direct
  0.5033121255750319  0.8323272004264728  0.7529582993533829
  0.8227991027433971  0.8271952559443403  0.7471214935988920
  0.5021366875960759  0.4956538540008175  0.2480268233332089
 -0.0061755860438400  0.3318563129929112  0.0075410239570866
  0.1746788162929414  0.8295260273942345  0.2515361336085678
  0.8254321069460369  0.5006382950342312  0.7386332634579590
  0.3407950233883617  0.3287994288819279  0.0030683142776868
  0.3346402304212553  0.0057243762013615 -0.0046704028341015
  0.6760709364192751  0.6597419825382509  0.5073689532293242
 -0.0085354232846411  0.3364551745819815  0.4917067327589785
 -0.0108528778233167  0.6642253696775893  0.4979627728466218
  0.4992643471626267  0.1717194277700899  0.7566407295398772
  0.3385720436371582  0.3308371814853602  0.4888897796159611
  0.6682004917687254  0.3357013961038905 -0.0001631209290127
  0.8296837712414931  0.4960667958250974  0.2599843869871037
  0.6698126647265598  0.6597711393215553 -0.0030269804500304
  0.8291269889526948  0.1790314972233593  0.7542901433160526
  0.8276341524077707  0.8258262185377597  0.2591161515705144
  0.6674743357540003  0.3387713071893354  0.4944422283075838
  0.3344392646674840  0.6661750505491443  0.4963004353519369
  0.6668522303926360  0.0010320846071244  0.5098651756705903
  0.1718378710192764  0.1769753377231467  0.2449197133635949
  0.1657507018444645  0.4931786079817015  0.2554479950748362
  0.6655583002693466  0.0039130927631929 -0.0105099920293221
  0.8305430737038114  0.1798486416329390  0.2456386722778700
  0.4998159908695520  0.1750878383853501  0.2398944325478809
  0.5014499640671161  0.4949449713145276  0.7473721897510958
  0.0012624874898696 -0.0013583823792283  0.0022399859869793
  0.3372359148272330  0.0057283402789507  0.5056319809384022
  0.3344887470170614  0.6648535007614038  0.0040775447223052
  0.1745280635822012  0.8304835560191011  0.7526216280834936
  0.1742700030004984  0.1756043786322358  0.7566130964076418
 -0.0075015774138532  0.6634351484381557  0.0047747085093335
  0.5036091792375293  0.8317248693668676  0.2496423759312264
  0.1619448518113616  0.4906574857990529  0.7429829219741534
 -0.0001550042671949 -0.0021527630042316  0.5010604098923251
 
  0.00000000E+00  0.00000000E+00  0.00000000E+00
  0.00000000E+00  0.00000000E+00  0.00000000E+00
  0.00000000E+00  0.00000000E+00  0.00000000E+00
  0.00000000E+00  0.00000000E+00  0.00000000E+00
  0.00000000E+00  0.00000000E+00  0.00000000E+00
  0.00000000E+00  0.00000000E+00  0.00000000E+00
  0.00000000E+00  0.00000000E+00  0.00000000E+00
  0.00000000E+00  0.00000000E+00  0.00000000E+00
  0.00000000E+00  0.00000000E+00  0.00000000E+00
  0.00000000E+00  0.00000000E+00  0.00000000E+00
  0.00000000E+00  0.00000000E+00  0.00000000E+00
  0.00000000E+00  0.00000000E+00  0.00000000E+00
  0.00000000E+00  0.00000000E+00  0.00000000E+00
  0.00000000E+00  0.00000000E+00  0.00000000E+00
  0.00000000E+00  0.00000000E+00  0.00000000E+00
  0.00000000E+00  0.00000000E+00  0.00000000E+00
  0.00000000E+00  0.00000000E+00  0.00000000E+00
  0.00000000E+00  0.00000000E+00  0.00000000E+00
  0.00000000E+00  0.00000000E+00  0.00000000E+00
  0.00000000E+00  0.00000000E+00  0.00000000E+00
  0.00000000E+00  0.00000000E+00  0.00000000E+00
  0.00000000E+00  0.00000000E+00  0.00000000E+00
  0.00000000E+00  0.00000000E+00  0.00000000E+00
  0.00000000E+00  0.00000000E+00  0.00000000E+00
  0.00000000E+00  0.00000000E+00  0.00000000E+00
  0.00000000E+00  0.00000000E+00  0.00000000E+00
  0.00000000E+00  0.00000000E+00  0.00000000E+00
  0.00000000E+00  0.00000000E+00  0.00000000E+00
  0.00000000E+00  0.00000000E+00  0.00000000E+00
  0.00000000E+00  0.00000000E+00  0.00000000E+00
  0.00000000E+00  0.00000000E+00  0.00000000E+00
  0.00000000E+00  0.00000000E+00  0.00000000E+00
  0.00000000E+00  0.00000000E+00  0.00000000E+00
  0.00000000E+00  0.00000000E+00  0.00000000E+00
  0.00000000E+00  0.00000000E+00  0.00000000E+00
  0.00000000E+00  0.00000000E+00  0.00000000E+00
