title                                   
    1.000000000000000     
     9.2514353756436876    0.0075605561261748   -0.0031232441524330
     0.0075610862212878    9.2471206180080614   -0.0152427869611270
    -0.0020829193791241   -0.0101526089448178    6.1701047292083482
   Cr   Mo   W 
    12    12    12
Direct
  0.6700253031257359  0.6669286384442596  0.5003363326280066
  0.8339073189289489  0.5039338560245129  0.2477187918843868
  0.3263965191298599  0.0037319874200898  0.5009491559648986
 -0.0043576733534968  0.6674676555992175 -0.0004080693069094
  0.1669002841292395  0.1634118160803560  0.7420161595267725
  0.0065944643160297 -0.0000675893732375  0.5028009700521385
  0.0015735340531905  0.3325705625422403  0.0012843517815419
  0.1674076868699079  0.1655780414509424  0.2553239894378187
  0.3286368589014478  0.3285889169691579  0.4995410954107171
  0.6713471981465063  0.6662445974642411  0.0003784012501328
  0.8362980792521870  0.8297705722682720  0.7510078496643553
  0.1636847611728445  0.8376318841615632  0.7468067308983116
 -0.0031067948955902  0.6700668339599666  0.5053559240443296
  0.5015728852110388  0.8312112388400948  0.7486726850186458
  0.3302229892371882  0.6689126342883830 -0.0015825234877824
  0.3314591742822843  0.6690012101201008  0.5025488330906790
  0.5013794658409033  0.5029757431667492  0.2522115680095702
  0.4934166254877697  0.1666006146961548  0.7451843500756096
  0.3268594279877210  0.0010510666513400 -0.0052638389972019
  0.3275498743755591  0.3294079670644217 -0.0003471548542017
  0.8347314552751418  0.5068749124248896  0.7575331185360444
  0.5006685451079338  0.5025863661485086  0.7490576851850098
  0.1644378152508862  0.8373505254283524  0.2553936264701254
  0.6690420856567365 -0.0040445778753425 -0.0030143395669723
  0.8344599141258592  0.8268050094705451  0.2478188743556243
  0.4935398390149904  0.1659030634106651  0.2542971454413719
  0.6698176444137405 -0.0038438006875878  0.5030241293070450
  0.1635337382264651  0.4980369629631338  0.7532167231498593
  0.6692422763547837  0.3379871591333284  0.0025291948654987
  0.5014069795668868  0.8316688600890021  0.2516152192405605
  0.0057060429268280 -0.0025759758265091 -0.0075735552206830
  0.8402928681512994  0.1655353828433705  0.2484327751337326
  0.8403111847513604  0.1660355103700550  0.7500292817939144
  0.6688469385824416  0.3378794659603829  0.4984320667175555
  0.0041684646923508  0.3307027526645621  0.4980596335468025
  0.1620262257030211  0.4980801356438189  0.2466128189526941
 
  0.00000000E+00  0.00000000E+00  0.00000000E+00
  0.00000000E+00  0.00000000E+00  0.00000000E+00
  0.00000000E+00  0.00000000E+00  0.00000000E+00
  0.00000000E+00  0.00000000E+00  0.00000000E+00
  0.00000000E+00  0.00000000E+00  0.00000000E+00
  0.00000000E+00  0.00000000E+00  0.00000000E+00
  0.00000000E+00  0.00000000E+00  0.00000000E+00
  0.00000000E+00  0.00000000E+00  0.00000000E+00
  0.00000000E+00  0.00000000E+00  0.00000000E+00
  0.00000000E+00  0.00000000E+00  0.00000000E+00
  0.00000000E+00  0.00000000E+00  0.00000000E+00
  0.00000000E+00  0.00000000E+00  0.00000000E+00
  0.00000000E+00  0.00000000E+00  0.00000000E+00
  0.00000000E+00  0.00000000E+00  0.00000000E+00
  0.00000000E+00  0.00000000E+00  0.00000000E+00
  0.00000000E+00  0.00000000E+00  0.00000000E+00
  0.00000000E+00  0.00000000E+00  0.00000000E+00
  0.00000000E+00  0.00000000E+00  0.00000000E+00
  0.00000000E+00  0.00000000E+00  0.00000000E+00
  0.00000000E+00  0.00000000E+00  0.00000000E+00
  0.00000000E+00  0.00000000E+00  0.00000000E+00
  0.00000000E+00  0.00000000E+00  0.00000000E+00
  0.00000000E+00  0.00000000E+00  0.00000000E+00
  0.00000000E+00  0.00000000E+00  0.00000000E+00
  0.00000000E+00  0.00000000E+00  0.00000000E+00
  0.00000000E+00  0.00000000E+00  0.00000000E+00
  0.00000000E+00  0.00000000E+00  0.00000000E+00
  0.00000000E+00  0.00000000E+00  0.00000000E+00
  0.00000000E+00  0.00000000E+00  0.00000000E+00
  0.00000000E+00  0.00000000E+00  0.00000000E+00
  0.00000000E+00  0.00000000E+00  0.00000000E+00
  0.00000000E+00  0.00000000E+00  0.00000000E+00
  0.00000000E+00  0.00000000E+00  0.00000000E+00
  0.00000000E+00  0.00000000E+00  0.00000000E+00
  0.00000000E+00  0.00000000E+00  0.00000000E+00
  0.00000000E+00  0.00000000E+00  0.00000000E+00
