title                                   
    1.000000000000000     
    10.0744449677122230    0.1312849445733948   -0.0883562082386533
     0.1316878490600806    9.8794158419107099    0.1541114807891156
    -0.0573694090729227    0.0989199544673912    6.7613674945405320
   Cr   Mo   V    Zr
     4    10     3    19
Direct
  0.1743300678667838  0.1620547551755808  0.7853172221654140
  0.4980261298796045  0.8142751263536193  0.6884818577162964
  0.1651686261278653  0.1713734924188671  0.2305667670267942
  0.6971437710209252  0.0127279710011102  0.0563777610121796
  0.3019224743375516  0.0153236772021664  0.0162891841092441
  0.0126381630221408  0.3320355698327166  0.0065454130946031
  0.6620880385043496  0.6829982430510834  0.4938507203759903
  0.8224745471661705  0.8425213505446343  0.2511290339453098
  0.0095698157941118  0.6628116060689322  0.0013300326943810
  0.1730736427015178  0.8282006399715439  0.2439299521542433
  0.1604460949885180  0.5003632426791360  0.7632623830227219
  0.6737464766500343  0.3197308750984624  0.4897807924466827
  0.6653548670763587 -0.0008793542047568  0.4831731322965718
  0.8281554661043582  0.1700656946856747  0.2529731821506445
  0.3255458019048047  0.6816650544954271  0.4965297851785235
  0.1439861657277938  0.4987438114706625  0.2172485235491248
  0.5208140639497308  0.1518509329901962  0.2768218308899740
  0.5054883628604961  0.5052992245780108  0.7174541421229393
  0.3195937058723828  0.3247012947250470  0.5090115884251968
  0.5148491102460482  0.1172123133340481  0.7831906450433118
  0.8328505699100223  0.4999236408079187  0.7432151292966854
  0.1729164876935528  0.8327157044134124  0.7578820881052175
  0.5053272879979405  0.5001288473916515  0.2804637915960484
  0.8275224918532627  0.1702253669466326  0.7486541770826509
  0.0030034545550690  0.0071877376567577  0.0174141673957763
  0.8198693647812252  0.8429518256068234  0.7489577382048929
  0.0046546041433201  0.0071900847270298  0.4834404480050481
  0.6516517808596058  0.6843174456756239 -0.0150166613441786
  0.3265305198901312  0.3228955198507547  0.0110737504596526
  0.3297253230397735  0.6573126167336443 -0.0072405499799145
  0.8373956212533928  0.5069895026635670  0.2395172943411301
  0.0154745782467471  0.6692991087492997  0.4836832374641127
  0.6569386614539590  0.3217858372412938  0.0170076369112640
  0.3254483012662162  0.0062893173177102  0.4951959821954476
  0.4970259954406235  0.8517997941159136  0.2349739803275632
  0.0192495658136114  0.3259121286298028  0.4975138405184557
 
  0.00000000E+00  0.00000000E+00  0.00000000E+00
  0.00000000E+00  0.00000000E+00  0.00000000E+00
  0.00000000E+00  0.00000000E+00  0.00000000E+00
  0.00000000E+00  0.00000000E+00  0.00000000E+00
  0.00000000E+00  0.00000000E+00  0.00000000E+00
  0.00000000E+00  0.00000000E+00  0.00000000E+00
  0.00000000E+00  0.00000000E+00  0.00000000E+00
  0.00000000E+00  0.00000000E+00  0.00000000E+00
  0.00000000E+00  0.00000000E+00  0.00000000E+00
  0.00000000E+00  0.00000000E+00  0.00000000E+00
  0.00000000E+00  0.00000000E+00  0.00000000E+00
  0.00000000E+00  0.00000000E+00  0.00000000E+00
  0.00000000E+00  0.00000000E+00  0.00000000E+00
  0.00000000E+00  0.00000000E+00  0.00000000E+00
  0.00000000E+00  0.00000000E+00  0.00000000E+00
  0.00000000E+00  0.00000000E+00  0.00000000E+00
  0.00000000E+00  0.00000000E+00  0.00000000E+00
  0.00000000E+00  0.00000000E+00  0.00000000E+00
  0.00000000E+00  0.00000000E+00  0.00000000E+00
  0.00000000E+00  0.00000000E+00  0.00000000E+00
  0.00000000E+00  0.00000000E+00  0.00000000E+00
  0.00000000E+00  0.00000000E+00  0.00000000E+00
  0.00000000E+00  0.00000000E+00  0.00000000E+00
  0.00000000E+00  0.00000000E+00  0.00000000E+00
  0.00000000E+00  0.00000000E+00  0.00000000E+00
  0.00000000E+00  0.00000000E+00  0.00000000E+00
  0.00000000E+00  0.00000000E+00  0.00000000E+00
  0.00000000E+00  0.00000000E+00  0.00000000E+00
  0.00000000E+00  0.00000000E+00  0.00000000E+00
  0.00000000E+00  0.00000000E+00  0.00000000E+00
  0.00000000E+00  0.00000000E+00  0.00000000E+00
  0.00000000E+00  0.00000000E+00  0.00000000E+00
  0.00000000E+00  0.00000000E+00  0.00000000E+00
  0.00000000E+00  0.00000000E+00  0.00000000E+00
  0.00000000E+00  0.00000000E+00  0.00000000E+00
  0.00000000E+00  0.00000000E+00  0.00000000E+00
