title                                   
    1.000000000000000     
    10.2401061674599188    0.1159650455110288   -0.0231665644574973
     0.1166663347864042   10.1243147624059340   -0.0289040669604752
    -0.0152775185069214   -0.0193001225515845    6.7297778622353688
   Hf   Mo   Nb   W    Zr
    15    12     2     1     6
Direct
  0.6496388774532873  0.3362993036112152  0.4971113123158017
  0.8316267760657901  0.1803467831033519  0.7654636110679336
  0.1837167562646007  0.1622622357345324  0.2270645101163350
  0.3520946535942171  0.3311161398617975  0.4995402562336662
 -0.0023057560307372 -0.0041871552157610  0.4918462375979260
  0.4971008386741533  0.8394617196577457  0.7443322781530687
  0.1582497273503836  0.4903287137147676  0.7605321515292326
  0.8325849560143197  0.5022692878299011  0.2426470821315388
  0.4980878201108080  0.8422973167691079  0.2582327037289786
  0.0074106842869408  0.6900999575315915  0.0104348171595946
  0.8277089061758990  0.1846884304033208  0.2270669674364484
  0.8349006583373196  0.5041550676424075  0.7545815685005330
  0.1842390886750459  0.1612991373701119  0.7639683442431382
  0.3388766327464448  0.6505196610740133  0.4934569102234443
 -0.0035195685212812 -0.0147950151732174  0.0107809391582626
  0.6593923323507780  0.6607125842080409 -0.0049051159186521
  0.5063382151093452  0.4954886581667960  0.2371733420391416
  0.3349053748612177  0.0023420605403314  0.4919937909925043
  0.6543860563080132  0.3415934595889479 -0.0038802138478679
 -0.0011397733224923  0.3358101132704865 -0.0045067346184627
  0.5004684718365682  0.1652166345477974  0.7507762851465176
  0.3539013752424462  0.3336913038318070 -0.0010987555695238
  0.3463641310074934  0.0085918737393982  0.0006593197295808
  0.6537411005665960  0.0160924344942119  0.5069911193496547
  0.1742934430892932  0.8387472971733941  0.2693386037551893
 -0.0014712539086150  0.6798988168221507  0.5042235150623315
  0.4963466745807785  0.1630844002142584  0.2417875684366323
  0.8204875107982357  0.8225873691222755  0.7387731610383338
  0.6484709965890599  0.6497610628114667  0.5045093616504867
  0.5093783569619186  0.4994501611592143  0.7660923115329744
  0.1810098914476292  0.8427294743170517  0.7418226505816226
  0.1558648590107031  0.4853069822489656  0.2394502603781622
  0.3339711752140256  0.6607590887883884  0.0152646348317988
  0.6612901129542822  0.0111634375426122 -0.0083131309506907
  0.8115100476387268  0.8230920971205780  0.2697388815468604
  0.0100798504668064  0.3077191063769412  0.4970494552375043
 
  0.00000000E+00  0.00000000E+00  0.00000000E+00
  0.00000000E+00  0.00000000E+00  0.00000000E+00
  0.00000000E+00  0.00000000E+00  0.00000000E+00
  0.00000000E+00  0.00000000E+00  0.00000000E+00
  0.00000000E+00  0.00000000E+00  0.00000000E+00
  0.00000000E+00  0.00000000E+00  0.00000000E+00
  0.00000000E+00  0.00000000E+00  0.00000000E+00
  0.00000000E+00  0.00000000E+00  0.00000000E+00
  0.00000000E+00  0.00000000E+00  0.00000000E+00
  0.00000000E+00  0.00000000E+00  0.00000000E+00
  0.00000000E+00  0.00000000E+00  0.00000000E+00
  0.00000000E+00  0.00000000E+00  0.00000000E+00
  0.00000000E+00  0.00000000E+00  0.00000000E+00
  0.00000000E+00  0.00000000E+00  0.00000000E+00
  0.00000000E+00  0.00000000E+00  0.00000000E+00
  0.00000000E+00  0.00000000E+00  0.00000000E+00
  0.00000000E+00  0.00000000E+00  0.00000000E+00
  0.00000000E+00  0.00000000E+00  0.00000000E+00
  0.00000000E+00  0.00000000E+00  0.00000000E+00
  0.00000000E+00  0.00000000E+00  0.00000000E+00
  0.00000000E+00  0.00000000E+00  0.00000000E+00
  0.00000000E+00  0.00000000E+00  0.00000000E+00
  0.00000000E+00  0.00000000E+00  0.00000000E+00
  0.00000000E+00  0.00000000E+00  0.00000000E+00
  0.00000000E+00  0.00000000E+00  0.00000000E+00
  0.00000000E+00  0.00000000E+00  0.00000000E+00
  0.00000000E+00  0.00000000E+00  0.00000000E+00
  0.00000000E+00  0.00000000E+00  0.00000000E+00
  0.00000000E+00  0.00000000E+00  0.00000000E+00
  0.00000000E+00  0.00000000E+00  0.00000000E+00
  0.00000000E+00  0.00000000E+00  0.00000000E+00
  0.00000000E+00  0.00000000E+00  0.00000000E+00
  0.00000000E+00  0.00000000E+00  0.00000000E+00
  0.00000000E+00  0.00000000E+00  0.00000000E+00
  0.00000000E+00  0.00000000E+00  0.00000000E+00
  0.00000000E+00  0.00000000E+00  0.00000000E+00
