title                                   
    1.000000000000000     
     9.9135902701055922   -0.0259750143666113    0.0499348323371724
    -0.0263861648032406   10.0517502590330174    0.0494802874052683
     0.0332125373122877    0.0331337199953691    6.6348737282910797
   Nb   V    Zr
    18     8    10
Direct
  0.3328081164629721  0.6500074361406604  0.0086177626379923
  0.6643654599886462  0.6603678631976597  0.5067410934742231
  0.1788067006359295  0.1822072518291072  0.2440259167949071
  0.3383082704519853  0.0045012552967786 -0.0036957929046998
  0.5042610430633643  0.1687539533591439  0.7531449370786314
  0.0026430565753990  0.3472992259538228  0.4883764436437651
  0.3374976617195283  0.3446399566868500  0.4863743121463447
  0.0066850200067784  0.3575565639001723  0.0132676757143313
  0.8342431450670414  0.4948159371702188  0.7552898305377140
  0.1679366255349860  0.5047436345738883  0.7528553198856924
  0.8178805112954237  0.8320655454890911  0.2507320671292210
  0.1803537338991555  0.8189198911335817  0.2449168536253294
  0.3323327531440784  0.0098451809650239  0.5000644009430006
  0.6669073471570437 -0.0091081885543821  0.5197919015651239
  0.4963220314298769  0.8330403046811544  0.7507615223437570
  0.4937476190748781  0.4954709624937946  0.7481400514936668
  0.6630096080395883  0.3483578205300145  0.5001967175636037
  0.8277208906379157  0.8327166485130763  0.7563550393720453
  0.1732007019272949  0.5005395954568183  0.2413218691689291
  0.6597207823129324  0.3624234837569957 -0.0015799478637190
  0.8326952411104348  0.4881039346538033  0.2458500205233227
 -0.0064231114665052  0.6589833152617727  0.0154761359161598
  0.3402474679526480  0.3462206333277845  0.0075070088784668
  0.3287473715248618  0.6439929238631390  0.4874466846481494
  0.4891743134159441  0.4899897412388234  0.2497637400182867
  0.6669795280016958 -0.0249994458041536 -0.0187963769328308
  0.0027202777707269 -0.0129064813547263  0.0165966678735019
 -0.0078592679206194  0.6606308712539987  0.4803545993281667
  0.8231116991552456  0.1777579479649939  0.2407846197517664
  0.0042144560569925  0.0013890814410768  0.4897918980510231
  0.4940401871726537  0.8313355443215004  0.2596283072485412
  0.1762148967066904  0.8161798324896060  0.7488557899696574
  0.1755396873495108  0.1831308743535768  0.7548220053762583
  0.5099824296987160  0.1700755447171843  0.2361536863121767
  0.6677905513388677  0.6567003947827692  0.0068484524398351
  0.8240731937073187  0.1742509649153804  0.7632187862476588
 
  0.00000000E+00  0.00000000E+00  0.00000000E+00
  0.00000000E+00  0.00000000E+00  0.00000000E+00
  0.00000000E+00  0.00000000E+00  0.00000000E+00
  0.00000000E+00  0.00000000E+00  0.00000000E+00
  0.00000000E+00  0.00000000E+00  0.00000000E+00
  0.00000000E+00  0.00000000E+00  0.00000000E+00
  0.00000000E+00  0.00000000E+00  0.00000000E+00
  0.00000000E+00  0.00000000E+00  0.00000000E+00
  0.00000000E+00  0.00000000E+00  0.00000000E+00
  0.00000000E+00  0.00000000E+00  0.00000000E+00
  0.00000000E+00  0.00000000E+00  0.00000000E+00
  0.00000000E+00  0.00000000E+00  0.00000000E+00
  0.00000000E+00  0.00000000E+00  0.00000000E+00
  0.00000000E+00  0.00000000E+00  0.00000000E+00
  0.00000000E+00  0.00000000E+00  0.00000000E+00
  0.00000000E+00  0.00000000E+00  0.00000000E+00
  0.00000000E+00  0.00000000E+00  0.00000000E+00
  0.00000000E+00  0.00000000E+00  0.00000000E+00
  0.00000000E+00  0.00000000E+00  0.00000000E+00
  0.00000000E+00  0.00000000E+00  0.00000000E+00
  0.00000000E+00  0.00000000E+00  0.00000000E+00
  0.00000000E+00  0.00000000E+00  0.00000000E+00
  0.00000000E+00  0.00000000E+00  0.00000000E+00
  0.00000000E+00  0.00000000E+00  0.00000000E+00
  0.00000000E+00  0.00000000E+00  0.00000000E+00
  0.00000000E+00  0.00000000E+00  0.00000000E+00
  0.00000000E+00  0.00000000E+00  0.00000000E+00
  0.00000000E+00  0.00000000E+00  0.00000000E+00
  0.00000000E+00  0.00000000E+00  0.00000000E+00
  0.00000000E+00  0.00000000E+00  0.00000000E+00
  0.00000000E+00  0.00000000E+00  0.00000000E+00
  0.00000000E+00  0.00000000E+00  0.00000000E+00
  0.00000000E+00  0.00000000E+00  0.00000000E+00
  0.00000000E+00  0.00000000E+00  0.00000000E+00
  0.00000000E+00  0.00000000E+00  0.00000000E+00
  0.00000000E+00  0.00000000E+00  0.00000000E+00
