title                                   
    1.000000000000000     
     9.6413861639272085    0.0199800273272104   -0.0045816887742352
     0.0200153349349679    9.6470640926324407   -0.0131949553973671
    -0.0031033138971462   -0.0087957937360205    6.4130854189547044
   Cr   Mo   Nb   W    Zr
     7     8     7     7     7
Direct
  0.6641662087186820  0.6597656737905452  0.5152058038867396
  0.6600505053743769  0.0057546130955884  0.5086992034840832
  0.6645456471063196  0.6549027934865407 -0.0079615272474209
  0.6626300316204784  0.3355018456127011 -0.0055672958479604
  0.3446450733964407  0.3409187821028050  0.0034394112639893
  0.8213073715855511  0.5087603870528711  0.7603280258719305
  0.5043949480342418  0.1606866360851027  0.7537032550310087
  0.1708397840881256  0.8292128874041765  0.2573731446176518
  0.5058981179753315  0.5063527015067262  0.2368512478954312
  0.5019787581730975  0.1665185806015418  0.2345334920080113
  0.8227554215969588  0.1646884071471117  0.2485802735861084
  0.3443063508356982  0.0009666275931223  0.0029829287777237
  0.8259911287333530  0.5067923507109898  0.2408946084588329
  0.5001578589507237  0.8323724220189379  0.2534467863526933
 -0.0031204351963322  0.6602358257504879  0.5031559373098717
 -0.0062197131452388  0.0006990242484596  0.4972428467509724
  0.8196124914669592  0.1645220594448673  0.7530925076100312
 -0.0087164665328771  0.3402101973130037 -0.0007786727303975
  0.6605582216320653  0.0047789844586342 -0.0014710994056808
  0.1776764741239578  0.1664964246689677  0.2396281683296859
  0.5055953312105542  0.8309399462298306  0.7462538807592929
 -0.0052555677986137  0.6590473656729702 -0.0001926757596996
  0.1721301590620531  0.5060289008564011  0.7536449368588540
  0.5074460344814180  0.5054756480787506  0.7630568883943152
  0.3388722172685044  0.6626928527945710  0.0043621932246401
  0.3467400913175145 -0.0000535551496215  0.4907392685762046
  0.3391109412235065  0.6638343214915821  0.4940799865086954
  0.8211712086288310  0.8223851347875285  0.7420356394555550
  0.1724869493470809  0.5032668125701338  0.2417103451545314
 -0.0060730136464458  0.3397578259486264  0.4978618194126811
  0.3468227638323814  0.3361234779704108  0.4956077672162343
  0.1701420370946570  0.8325426853502459  0.7478915549785508
 -0.0068162461008635 -0.0020561851492937  0.0082232411626167
  0.8142031740183732  0.8237984301694616  0.2644036110707305
  0.1834026961302017  0.1704578365293759  0.7576232132563242
  0.6665634453929364  0.3356212777558484  0.4993192837271676
 
  0.00000000E+00  0.00000000E+00  0.00000000E+00
  0.00000000E+00  0.00000000E+00  0.00000000E+00
  0.00000000E+00  0.00000000E+00  0.00000000E+00
  0.00000000E+00  0.00000000E+00  0.00000000E+00
  0.00000000E+00  0.00000000E+00  0.00000000E+00
  0.00000000E+00  0.00000000E+00  0.00000000E+00
  0.00000000E+00  0.00000000E+00  0.00000000E+00
  0.00000000E+00  0.00000000E+00  0.00000000E+00
  0.00000000E+00  0.00000000E+00  0.00000000E+00
  0.00000000E+00  0.00000000E+00  0.00000000E+00
  0.00000000E+00  0.00000000E+00  0.00000000E+00
  0.00000000E+00  0.00000000E+00  0.00000000E+00
  0.00000000E+00  0.00000000E+00  0.00000000E+00
  0.00000000E+00  0.00000000E+00  0.00000000E+00
  0.00000000E+00  0.00000000E+00  0.00000000E+00
  0.00000000E+00  0.00000000E+00  0.00000000E+00
  0.00000000E+00  0.00000000E+00  0.00000000E+00
  0.00000000E+00  0.00000000E+00  0.00000000E+00
  0.00000000E+00  0.00000000E+00  0.00000000E+00
  0.00000000E+00  0.00000000E+00  0.00000000E+00
  0.00000000E+00  0.00000000E+00  0.00000000E+00
  0.00000000E+00  0.00000000E+00  0.00000000E+00
  0.00000000E+00  0.00000000E+00  0.00000000E+00
  0.00000000E+00  0.00000000E+00  0.00000000E+00
  0.00000000E+00  0.00000000E+00  0.00000000E+00
  0.00000000E+00  0.00000000E+00  0.00000000E+00
  0.00000000E+00  0.00000000E+00  0.00000000E+00
  0.00000000E+00  0.00000000E+00  0.00000000E+00
  0.00000000E+00  0.00000000E+00  0.00000000E+00
  0.00000000E+00  0.00000000E+00  0.00000000E+00
  0.00000000E+00  0.00000000E+00  0.00000000E+00
  0.00000000E+00  0.00000000E+00  0.00000000E+00
  0.00000000E+00  0.00000000E+00  0.00000000E+00
  0.00000000E+00  0.00000000E+00  0.00000000E+00
  0.00000000E+00  0.00000000E+00  0.00000000E+00
  0.00000000E+00  0.00000000E+00  0.00000000E+00
