title                                   
    1.000000000000000     
     9.7622045614893427    0.0153921578615308    0.0093752651468236
     0.0153876291485913    9.7604686825408322    0.0167057301206365
     0.0062519506340870    0.0111444710071286    6.5084196904627794
   Nb   Ta   W    Zr
     4    10    19     3
Direct
  0.4983816175693795  0.5032760037299907  0.7531827799875400
  0.8326811457972195  0.1659345433139711  0.2544529747965586
  0.5013565246238550  0.1611372754615271  0.7521199646425830
  0.8340512074846701  0.1672028938193495  0.7463966979990362
  0.1657376801697998  0.1690752376261420  0.2510233827874250
  0.1629253624144215  0.5007505096964553  0.2449750221909652
  0.6673473400924569  0.3368597786915571  0.4970009459720788
  0.4998589950706427  0.1619930536244623  0.2488843009139715
  0.3316720528715769  0.6679547741449429  0.4984459855411294
  0.8403817192369318  0.5006249377457238  0.7466537741564668
  0.3289546733310829 -0.0028817139689602 -0.0018612613146521
  0.8330927485870308  0.8327533952853852  0.2573711016838742
  0.4996907546621807  0.8359018922659084  0.7460155882211823
  0.6673430468486822  0.3364234081542531  0.0044515159412175
  0.0021725967254002  0.6671966844426551 -0.0019425354821407
  0.8335124535378456  0.8322579273435893  0.7398473007120999
  0.0021281437120920  0.6679773858704700  0.5007221060398861
  0.0021276812296764 -0.0030518667159894  0.5038983377970434
  0.1662773371067523  0.8292150847675749  0.2531282894331015
  0.3323607032131644  0.3343223105290475 -0.0003513033436950
  0.1673496560683624  0.8298831477018778  0.7457613574648482
  0.6673757999307057 -0.0017160745614840  0.4997161220865988
  0.3316616455811183  0.6682830252782449  0.0016603553558672
  0.1617643741951243  0.5024388656993465  0.7556859173840021
  0.4994206620584480  0.8367998201829471  0.2537885760155418
  0.4973285564940473  0.5020120955730270  0.2468242092206487
  0.6669932108639941  0.6672775294286633  0.4957000908933967
  0.1655414093141912  0.1683034513677890  0.7496955568007817
  0.0009197149929562  0.3344754052823346  0.5018668384301911
  0.8403522383416984  0.5005184492755105  0.2535578896952668
  0.6655311359280144 -0.0025987932032000  0.0000336167197186
  0.0011681685193747  0.3344131340743385 -0.0018281545111332
  0.3302321901632152 -0.0038474924230213  0.4997890104971204
  0.6671390567328324  0.6661702791153898  0.0029662081702702
  0.3340705846314440  0.3353367815414978  0.5044566853681131
  0.0010978118996116 -0.0026731401613188 -0.0040892482669051
 
  0.00000000E+00  0.00000000E+00  0.00000000E+00
  0.00000000E+00  0.00000000E+00  0.00000000E+00
  0.00000000E+00  0.00000000E+00  0.00000000E+00
  0.00000000E+00  0.00000000E+00  0.00000000E+00
  0.00000000E+00  0.00000000E+00  0.00000000E+00
  0.00000000E+00  0.00000000E+00  0.00000000E+00
  0.00000000E+00  0.00000000E+00  0.00000000E+00
  0.00000000E+00  0.00000000E+00  0.00000000E+00
  0.00000000E+00  0.00000000E+00  0.00000000E+00
  0.00000000E+00  0.00000000E+00  0.00000000E+00
  0.00000000E+00  0.00000000E+00  0.00000000E+00
  0.00000000E+00  0.00000000E+00  0.00000000E+00
  0.00000000E+00  0.00000000E+00  0.00000000E+00
  0.00000000E+00  0.00000000E+00  0.00000000E+00
  0.00000000E+00  0.00000000E+00  0.00000000E+00
  0.00000000E+00  0.00000000E+00  0.00000000E+00
  0.00000000E+00  0.00000000E+00  0.00000000E+00
  0.00000000E+00  0.00000000E+00  0.00000000E+00
  0.00000000E+00  0.00000000E+00  0.00000000E+00
  0.00000000E+00  0.00000000E+00  0.00000000E+00
  0.00000000E+00  0.00000000E+00  0.00000000E+00
  0.00000000E+00  0.00000000E+00  0.00000000E+00
  0.00000000E+00  0.00000000E+00  0.00000000E+00
  0.00000000E+00  0.00000000E+00  0.00000000E+00
  0.00000000E+00  0.00000000E+00  0.00000000E+00
  0.00000000E+00  0.00000000E+00  0.00000000E+00
  0.00000000E+00  0.00000000E+00  0.00000000E+00
  0.00000000E+00  0.00000000E+00  0.00000000E+00
  0.00000000E+00  0.00000000E+00  0.00000000E+00
  0.00000000E+00  0.00000000E+00  0.00000000E+00
  0.00000000E+00  0.00000000E+00  0.00000000E+00
  0.00000000E+00  0.00000000E+00  0.00000000E+00
  0.00000000E+00  0.00000000E+00  0.00000000E+00
  0.00000000E+00  0.00000000E+00  0.00000000E+00
  0.00000000E+00  0.00000000E+00  0.00000000E+00
  0.00000000E+00  0.00000000E+00  0.00000000E+00
