title                                   
    1.000000000000000     
     9.2935029216213803    0.0062107680739745    0.0065385636019119
     0.0062168675159156    9.2976204713929533   -0.0004355112167616
     0.0043740514524318   -0.0002941839425591    6.2073844561279463
   Cr   Mo   Ti   W 
     9     9     9     9
Direct
  0.4953586437035878  0.8319925506350357  0.2522376211613415
  0.3288196115558351 -0.0011597235121308  0.5005390511429287
 -0.0016872391968659  0.6666756706110252  0.0007907012086397
 -0.0015446387250266  0.3311557597914869  0.5024522996969290
 -0.0034722113910491  0.3324465506013998 -0.0081934368768849
  0.6748570335079095  0.3296605763783036 -0.0067385708624196
  0.5000432524767947  0.4992786996520362  0.7460475810205662
  0.8342944206119173  0.1749828793979938  0.7592111766101410
 -0.0011498255264997  0.0080258055201421  0.0033678633714769
  0.6676485090696991  0.0007108574905525  0.5011695018446419
  0.5025660321544798  0.1635951499359650  0.7494063930641927
  0.1601113567233681  0.1676001915574581  0.7478847526025625
  0.8351334103190574  0.1713655273656333  0.2437078369016096
  0.3326256536646694  0.0000602287003743  0.0028598182003302
  0.6700910911424731  0.0015532072552538  0.0040252493783211
  0.8359760601969410  0.4960890590391328  0.7560884998204263
  0.3366709403595063  0.6636935563753696 -0.0030115746152321
  0.8360624328962776  0.8340010294148118  0.2464870842900392
  0.1608989162256995  0.5011048969205451  0.2424008973926146
  0.3330856177253426  0.3305154072938284 -0.0142242216517620
  0.4972840258621374  0.8360672430258792  0.7530726430415555
  0.8357902321277345  0.8391833983293328  0.7637249638128127
 -0.0025332737194983  0.0097171724419759  0.5052678026514617
  0.6624725707751262  0.6641869821444373  0.5019601764891639
  0.5039734346781238  0.4928214194566183  0.2427856077906085
  0.1668962653776735  0.8343752418606787  0.2474061830486314
  0.5032047804430319  0.1610241562150804  0.2509404459869788
  0.6656371638334746  0.6635071258849290  0.0028863551536927
  0.1610153270933653  0.4998629574322849  0.7479062530829885
  0.1641436730797224  0.1662132759059567  0.2475529218952850
 -0.0027482473478536  0.6677394927503025  0.5016544154100731
  0.6707479910892163  0.3340039283850113  0.5076531998328423
  0.3329469994988638  0.3317105736916904  0.5037408399628107
  0.8379915707078136  0.4954323114112553  0.2440656765138693
  0.3399018973023862  0.6660431832291683  0.4976651569687521
  0.1668865217045658  0.8347636574111811  0.7552088346580120
 
  0.00000000E+00  0.00000000E+00  0.00000000E+00
  0.00000000E+00  0.00000000E+00  0.00000000E+00
  0.00000000E+00  0.00000000E+00  0.00000000E+00
  0.00000000E+00  0.00000000E+00  0.00000000E+00
  0.00000000E+00  0.00000000E+00  0.00000000E+00
  0.00000000E+00  0.00000000E+00  0.00000000E+00
  0.00000000E+00  0.00000000E+00  0.00000000E+00
  0.00000000E+00  0.00000000E+00  0.00000000E+00
  0.00000000E+00  0.00000000E+00  0.00000000E+00
  0.00000000E+00  0.00000000E+00  0.00000000E+00
  0.00000000E+00  0.00000000E+00  0.00000000E+00
  0.00000000E+00  0.00000000E+00  0.00000000E+00
  0.00000000E+00  0.00000000E+00  0.00000000E+00
  0.00000000E+00  0.00000000E+00  0.00000000E+00
  0.00000000E+00  0.00000000E+00  0.00000000E+00
  0.00000000E+00  0.00000000E+00  0.00000000E+00
  0.00000000E+00  0.00000000E+00  0.00000000E+00
  0.00000000E+00  0.00000000E+00  0.00000000E+00
  0.00000000E+00  0.00000000E+00  0.00000000E+00
  0.00000000E+00  0.00000000E+00  0.00000000E+00
  0.00000000E+00  0.00000000E+00  0.00000000E+00
  0.00000000E+00  0.00000000E+00  0.00000000E+00
  0.00000000E+00  0.00000000E+00  0.00000000E+00
  0.00000000E+00  0.00000000E+00  0.00000000E+00
  0.00000000E+00  0.00000000E+00  0.00000000E+00
  0.00000000E+00  0.00000000E+00  0.00000000E+00
  0.00000000E+00  0.00000000E+00  0.00000000E+00
  0.00000000E+00  0.00000000E+00  0.00000000E+00
  0.00000000E+00  0.00000000E+00  0.00000000E+00
  0.00000000E+00  0.00000000E+00  0.00000000E+00
  0.00000000E+00  0.00000000E+00  0.00000000E+00
  0.00000000E+00  0.00000000E+00  0.00000000E+00
  0.00000000E+00  0.00000000E+00  0.00000000E+00
  0.00000000E+00  0.00000000E+00  0.00000000E+00
  0.00000000E+00  0.00000000E+00  0.00000000E+00
  0.00000000E+00  0.00000000E+00  0.00000000E+00
