title                                   
    1.000000000000000     
     9.9434239360850256   -0.0188103001300054   -0.0413160876266116
    -0.0187729552518604   10.2204670122111860    0.1729946878430301
    -0.0275919505369825    0.1160685970108859    7.1566348829053359
   Hf   Mo   Ti   Zr
    14     4    11     7
Direct
  0.3207738884714466  0.6630316354013096  0.5191970856858942
  0.8418165692547297  0.4914490709973960  0.2387542754258696
  0.4953504232954884  0.4982988781713487  0.2407703579430063
  0.3206845956867289  0.3567417410348364  0.5501906717019789
 -0.0019587609087549 -0.0222668519304896  0.4697845512757444
  0.6750443222812356  0.0039089601955815  0.4411916961033018
  0.5020382541881698  0.8329635166219479  0.7556918638480975
  0.1672163586256244  0.8371943599743259  0.7756573474515895
 -0.0006595581685437  0.6674491379870965  0.5040439228311566
 -0.0136766690371069  0.0129741009721443  0.0279276674527748
  0.8368259616365710  0.1615446319948358  0.7287320685340350
  0.5169251690862293  0.5127517287491797  0.7777036112255435
  0.3418375875100951  0.0288807696246558  0.0217004099750053
  0.1689250495267848  0.8102402743116068  0.2047568470463291
  0.8354947717017716  0.8249594698793823  0.2380560654035998
  0.1640106757990224  0.5148957924859222  0.7761127778676475
  0.3333214642099289  0.6545813377704167 -0.0233996485417163
 -0.0069820200893854  0.6598262695312274 -0.0134595468326715
  0.3274784957346470  0.3289684576631309 -0.0234123819053634
  0.3185921732485152 -0.0212297696695101  0.4724095092556136
  0.8645022314389635  0.2002631079819727  0.2795139724427824
  0.4685196432276568  0.1889042846962321  0.2957774599063028
  0.0201754570144697  0.3262450601523936 -0.0381418386435170
  0.0157307914026006  0.3588460518724219  0.5437145092613114
  0.6813543200096240  0.6747220476240124  0.4665115005481600
  0.1586087605508703  0.1479039171023570  0.7273491705328327
  0.6813786722988667  0.6844831569879366  0.0384613207990000
  0.6678067959378443  0.3261592358082544  0.4806458944501415
  0.6726488037110514 -0.0065841940261511  0.0146353076306937
  0.4855871664885182  0.8143940943641587  0.2247430082406931
  0.1634188738150713  0.5003312694863935  0.2289416704704893
  0.8259867692527720  0.8338546679098444  0.7569138561513854
  0.1664356277888431  0.1891392711101502  0.2801064833342641
  0.5053498563023872  0.1502440512018103  0.7236342245036591
  0.8254166510216102  0.4996511324683018  0.7645041994704862
  0.6540208276856544  0.2942793334935708  0.0302801091538806
 
  0.00000000E+00  0.00000000E+00  0.00000000E+00
  0.00000000E+00  0.00000000E+00  0.00000000E+00
  0.00000000E+00  0.00000000E+00  0.00000000E+00
  0.00000000E+00  0.00000000E+00  0.00000000E+00
  0.00000000E+00  0.00000000E+00  0.00000000E+00
  0.00000000E+00  0.00000000E+00  0.00000000E+00
  0.00000000E+00  0.00000000E+00  0.00000000E+00
  0.00000000E+00  0.00000000E+00  0.00000000E+00
  0.00000000E+00  0.00000000E+00  0.00000000E+00
  0.00000000E+00  0.00000000E+00  0.00000000E+00
  0.00000000E+00  0.00000000E+00  0.00000000E+00
  0.00000000E+00  0.00000000E+00  0.00000000E+00
  0.00000000E+00  0.00000000E+00  0.00000000E+00
  0.00000000E+00  0.00000000E+00  0.00000000E+00
  0.00000000E+00  0.00000000E+00  0.00000000E+00
  0.00000000E+00  0.00000000E+00  0.00000000E+00
  0.00000000E+00  0.00000000E+00  0.00000000E+00
  0.00000000E+00  0.00000000E+00  0.00000000E+00
  0.00000000E+00  0.00000000E+00  0.00000000E+00
  0.00000000E+00  0.00000000E+00  0.00000000E+00
  0.00000000E+00  0.00000000E+00  0.00000000E+00
  0.00000000E+00  0.00000000E+00  0.00000000E+00
  0.00000000E+00  0.00000000E+00  0.00000000E+00
  0.00000000E+00  0.00000000E+00  0.00000000E+00
  0.00000000E+00  0.00000000E+00  0.00000000E+00
  0.00000000E+00  0.00000000E+00  0.00000000E+00
  0.00000000E+00  0.00000000E+00  0.00000000E+00
  0.00000000E+00  0.00000000E+00  0.00000000E+00
  0.00000000E+00  0.00000000E+00  0.00000000E+00
  0.00000000E+00  0.00000000E+00  0.00000000E+00
  0.00000000E+00  0.00000000E+00  0.00000000E+00
  0.00000000E+00  0.00000000E+00  0.00000000E+00
  0.00000000E+00  0.00000000E+00  0.00000000E+00
  0.00000000E+00  0.00000000E+00  0.00000000E+00
  0.00000000E+00  0.00000000E+00  0.00000000E+00
  0.00000000E+00  0.00000000E+00  0.00000000E+00
