title                                   
    1.000000000000000     
     9.4902539444026104    0.0312787978969373    0.0045937399303303
     0.0311637898983087    9.4427781153106771   -0.0088968777632413
     0.0030601493691912   -0.0059813141650986    6.3757288308957323
   Ta   Ti   V    W    Zr
     6    12    15     2     1
Direct
  0.6570526187155191  0.0042304830264373  0.4897964815404288
  0.0000047674189343 -0.0003872329777433  0.5015443244381379
  0.5023675759594721  0.8259406715663790  0.7573912638913437
 -0.0025022932047639  0.3307727394772004  0.0089148549333938
  0.3317742393573010  0.6615599595495947  0.4971633821221668
  0.8234882209218198  0.8258557661210334  0.7409359609488950
  0.3397369727605660  0.0041344991327051  0.4926773194995773
  0.8314839026491007  0.1862538582905927  0.2777866838408513
  0.4965558318249066  0.1787484433727881  0.7743977356991701
  0.6732075122862354  0.0024562787611813  0.0132619169203246
  0.5084662232257054  0.5016322681396308  0.2361610911684027
  0.1798211460756613  0.8437253778943429  0.2396237169950014
  0.1728291217157525  0.1748932237237375  0.7533538790357457
  0.0006187616147363  0.6580527674991200  0.4931181792543579
  0.1808944660328141  0.4807839077065788  0.7580970308092765
  0.8141184301098672  0.4936853945778541  0.7410221354337837
  0.3398047383515033  0.3265040680449413  0.4759592781067531
 -0.0054768409284466  0.0064921849929520 -0.0035258016299305
  0.8178281782490050  0.8246694207799971  0.2671832142163774
  0.0037727344603455  0.3408157020189463  0.4964885178675551
  0.3335702796708752  0.3341375293742176  0.0267320882886863
  0.1824862359898520  0.4893781505877354  0.2375943314812999
  0.4978007443427133  0.8223877356326037  0.2387709564468040
  0.6565270637556553  0.3374002332946932  0.5031383823316163
  0.5093864882476069  0.5009384893664726  0.7573647226088598
  0.8292649768705852  0.1845886014027281  0.7314762650412059
  0.5023387527940683  0.1759342316506350  0.2241247445609398
  0.8116315308227112  0.4949175999653644  0.2616524741201303
  0.6648681820697049  0.6667202651463905  0.4888068051713242
  0.6702282712722862  0.3332427025986429  0.0002194454104174
  0.1665912378673439  0.1622716671288910  0.2447465356874944
  0.3379366748151109  0.6605060218420469 -0.0049870751871029
  0.6651887115383920  0.6684991980271739  0.0106390773035278
  0.1723442379350912  0.8365054503060545  0.7530756141716803
  0.3348069478595776  0.0013397782984020  0.0027750850845702
 -0.0008166434476087  0.6604125636796793  0.0125193823869324
 
  0.00000000E+00  0.00000000E+00  0.00000000E+00
  0.00000000E+00  0.00000000E+00  0.00000000E+00
  0.00000000E+00  0.00000000E+00  0.00000000E+00
  0.00000000E+00  0.00000000E+00  0.00000000E+00
  0.00000000E+00  0.00000000E+00  0.00000000E+00
  0.00000000E+00  0.00000000E+00  0.00000000E+00
  0.00000000E+00  0.00000000E+00  0.00000000E+00
  0.00000000E+00  0.00000000E+00  0.00000000E+00
  0.00000000E+00  0.00000000E+00  0.00000000E+00
  0.00000000E+00  0.00000000E+00  0.00000000E+00
  0.00000000E+00  0.00000000E+00  0.00000000E+00
  0.00000000E+00  0.00000000E+00  0.00000000E+00
  0.00000000E+00  0.00000000E+00  0.00000000E+00
  0.00000000E+00  0.00000000E+00  0.00000000E+00
  0.00000000E+00  0.00000000E+00  0.00000000E+00
  0.00000000E+00  0.00000000E+00  0.00000000E+00
  0.00000000E+00  0.00000000E+00  0.00000000E+00
  0.00000000E+00  0.00000000E+00  0.00000000E+00
  0.00000000E+00  0.00000000E+00  0.00000000E+00
  0.00000000E+00  0.00000000E+00  0.00000000E+00
  0.00000000E+00  0.00000000E+00  0.00000000E+00
  0.00000000E+00  0.00000000E+00  0.00000000E+00
  0.00000000E+00  0.00000000E+00  0.00000000E+00
  0.00000000E+00  0.00000000E+00  0.00000000E+00
  0.00000000E+00  0.00000000E+00  0.00000000E+00
  0.00000000E+00  0.00000000E+00  0.00000000E+00
  0.00000000E+00  0.00000000E+00  0.00000000E+00
  0.00000000E+00  0.00000000E+00  0.00000000E+00
  0.00000000E+00  0.00000000E+00  0.00000000E+00
  0.00000000E+00  0.00000000E+00  0.00000000E+00
  0.00000000E+00  0.00000000E+00  0.00000000E+00
  0.00000000E+00  0.00000000E+00  0.00000000E+00
  0.00000000E+00  0.00000000E+00  0.00000000E+00
  0.00000000E+00  0.00000000E+00  0.00000000E+00
  0.00000000E+00  0.00000000E+00  0.00000000E+00
  0.00000000E+00  0.00000000E+00  0.00000000E+00
