title                                   
    1.000000000000000     
     9.5689707983590484    0.0069112558750775    0.0113301850182782
     0.0069158402239911    9.5569705071306661    0.0149059660789972
     0.0075550048190936    0.0099351474266300    6.3716257048188494
   Mo   Nb   Ti   W 
    11     4     7    14
Direct
 -0.0012572895879935  0.6676245945723149  0.0001516550524680
  0.8345611783590565  0.8313060213007623  0.2513978523265586
  0.3333010077729770 -0.0013682952271197 -0.0000705994449638
  0.3315293381099381  0.3348412412046168 -0.0012399515564572
  0.4971327851783436  0.1661023947564501  0.7481093695773077
 -0.0008946171395589  0.3344012527028279  0.5009373355359853
  0.6670548146652796  0.0001935488812198  0.5005755704638786
  0.1676997531327536  0.8344218796340983  0.2486481308873161
  0.8353901335102849  0.5013447744298859  0.7476588629732547
  0.3345235797970394  0.6672049812349417  0.0029222270139218
  0.4996787940281253  0.8346924203879695  0.2515654680056420
  0.3317268418747034  0.6678383843319377  0.4984537198269328
  0.6674252368658120 -0.0044060549168390  0.0000345658953197
  0.6678163175365219  0.3330865747933346 -0.0048916451018029
  0.1694677209325703  0.1677338080165233  0.2486847530076037
  0.4967682733177696  0.1643425465005263  0.2502993380780195
  0.6663071174127694  0.3324946135548363  0.5033849944224393
 -0.0004562244520632  0.6686214846050071  0.4994367720718092
  0.6667879756608489  0.6684849094794961  0.0015895234282824
  0.1669440349388583  0.8364832405130682  0.7570382571253982
  0.4953606915315128  0.5011522496822604  0.7518692359406796
  0.8371057794568577  0.4986792617893820  0.2489183191687778
  0.4978967481770606  0.4990737500929706  0.2506895240120885
  0.1654408513158735  0.1664855988262112  0.7502230925674735
  0.8349581024302776  0.8352188806970661  0.7485491781744459
  0.8368744260259321  0.1662417668743163  0.2506411227518958
  0.3343973167363312 -0.0012775413224628  0.5015633284179206
  0.8360605143151404  0.1653009932044429  0.7465519872227735
  0.1689414060389497  0.4995286418780038  0.7525009062990153
 -0.0012020585170430 -0.0021711408259600  0.5004803146706251
  0.6682654055837814  0.6660321478319383  0.4993508550029134
  0.3338792955699069  0.3340112168044865  0.5011579854337073
  0.4977256086766531  0.8325618125982511  0.7489761762251956
  0.1641697599453948  0.4990348304432528  0.2470992089683678
  0.0005070937324409  0.3338375608794807 -0.0036167418711718
 -0.0018877129331065  0.0008456497905028  0.0003593074263795
 
  0.00000000E+00  0.00000000E+00  0.00000000E+00
  0.00000000E+00  0.00000000E+00  0.00000000E+00
  0.00000000E+00  0.00000000E+00  0.00000000E+00
  0.00000000E+00  0.00000000E+00  0.00000000E+00
  0.00000000E+00  0.00000000E+00  0.00000000E+00
  0.00000000E+00  0.00000000E+00  0.00000000E+00
  0.00000000E+00  0.00000000E+00  0.00000000E+00
  0.00000000E+00  0.00000000E+00  0.00000000E+00
  0.00000000E+00  0.00000000E+00  0.00000000E+00
  0.00000000E+00  0.00000000E+00  0.00000000E+00
  0.00000000E+00  0.00000000E+00  0.00000000E+00
  0.00000000E+00  0.00000000E+00  0.00000000E+00
  0.00000000E+00  0.00000000E+00  0.00000000E+00
  0.00000000E+00  0.00000000E+00  0.00000000E+00
  0.00000000E+00  0.00000000E+00  0.00000000E+00
  0.00000000E+00  0.00000000E+00  0.00000000E+00
  0.00000000E+00  0.00000000E+00  0.00000000E+00
  0.00000000E+00  0.00000000E+00  0.00000000E+00
  0.00000000E+00  0.00000000E+00  0.00000000E+00
  0.00000000E+00  0.00000000E+00  0.00000000E+00
  0.00000000E+00  0.00000000E+00  0.00000000E+00
  0.00000000E+00  0.00000000E+00  0.00000000E+00
  0.00000000E+00  0.00000000E+00  0.00000000E+00
  0.00000000E+00  0.00000000E+00  0.00000000E+00
  0.00000000E+00  0.00000000E+00  0.00000000E+00
  0.00000000E+00  0.00000000E+00  0.00000000E+00
  0.00000000E+00  0.00000000E+00  0.00000000E+00
  0.00000000E+00  0.00000000E+00  0.00000000E+00
  0.00000000E+00  0.00000000E+00  0.00000000E+00
  0.00000000E+00  0.00000000E+00  0.00000000E+00
  0.00000000E+00  0.00000000E+00  0.00000000E+00
  0.00000000E+00  0.00000000E+00  0.00000000E+00
  0.00000000E+00  0.00000000E+00  0.00000000E+00
  0.00000000E+00  0.00000000E+00  0.00000000E+00
  0.00000000E+00  0.00000000E+00  0.00000000E+00
  0.00000000E+00  0.00000000E+00  0.00000000E+00
