title                                   
    1.000000000000000     
     9.3904561693975186    0.0047075613042725   -0.0077980637451969
     0.0046942462260607    9.3894859994739459    0.0063337081106563
    -0.0052290586480778    0.0042647928676150    6.2879278405812782
   Ti   V    W 
    12    12    12
Direct
  0.8335780972511965  0.4926392325818449  0.7535966318654623
  0.1733760985660938  0.8352877142152098  0.2321173071213077
  0.6610039823398763  0.6683210281386371  0.0063922942419156
  0.4957337977441356  0.1657232251792094  0.7430414234852881
  0.6652260381875723 -0.0015797475812524  0.0035692033471744
  0.6612731967614572  0.3353791629827060  0.4884563595713146
  0.3391584995121429  0.3355303782635894  0.0088930526046938
  0.1695105092525590  0.1659439872063564  0.7534164356790495
  0.1729075446963023  0.8352278811123615  0.7630653445995069
 -0.0047604210787126  0.6691052792837389  0.4993890007808603
 -0.0017262003848301  0.0029520386140402  0.4954578105411941
  0.1672801002680272  0.4963399541802138  0.2508222117876151
  0.1678699613548494  0.1678860660375015  0.2470032510385304
  0.6683019480601748  0.3341851636521930  0.0094011952841457
  0.6653115820068854  0.6679786345156422  0.4981372692905631
  0.0023537617965353  0.3280427237109659  0.0015210829517141
  0.3500682776704533  0.0022545674394894  0.0092318655625590
 -0.0032321828060934  0.3281291798534194  0.4944137178527600
  0.3388975919683111  0.3363789382439664  0.4935402114222118
  0.4902499335861762  0.8347374079560340  0.2539891606069529
  0.4912321857001343  0.5085384219464738  0.2574632648132965
  0.3457443518490844  0.6590451890001149 -0.0010139823106697
 -0.0117080370006383  0.0051575185176223  0.0023705605394624
  0.4932153915744521  0.1596099823765850  0.2610665256869375
  0.8363276832176524  0.4969092410553009  0.2453276340820510
  0.1648465262850557  0.4961290337447293  0.7479912906006800
  0.3326388104652991  0.0031665018908702  0.4920604044039639
  0.8360831212454253  0.1734889275482679  0.7531851906815525
  0.8322609632267720  0.8330369285225885  0.2504232604978439
  0.8329530461570949  0.8309464481107081  0.7508729849188576
  0.8356882083328621  0.1701586798683072  0.2447103540788170
 -0.0030212506641770  0.6649769048192320 -0.0026262950857818
  0.6682393432587741  0.0001516742918749  0.4971366636536969
  0.5017932453665732  0.4997933396949735  0.7480086420022598
  0.4952465414831803  0.8347800783422211  0.7476298682008991
  0.3360777527493437  0.6636483146842623  0.4999388036013133
 
  0.00000000E+00  0.00000000E+00  0.00000000E+00
  0.00000000E+00  0.00000000E+00  0.00000000E+00
  0.00000000E+00  0.00000000E+00  0.00000000E+00
  0.00000000E+00  0.00000000E+00  0.00000000E+00
  0.00000000E+00  0.00000000E+00  0.00000000E+00
  0.00000000E+00  0.00000000E+00  0.00000000E+00
  0.00000000E+00  0.00000000E+00  0.00000000E+00
  0.00000000E+00  0.00000000E+00  0.00000000E+00
  0.00000000E+00  0.00000000E+00  0.00000000E+00
  0.00000000E+00  0.00000000E+00  0.00000000E+00
  0.00000000E+00  0.00000000E+00  0.00000000E+00
  0.00000000E+00  0.00000000E+00  0.00000000E+00
  0.00000000E+00  0.00000000E+00  0.00000000E+00
  0.00000000E+00  0.00000000E+00  0.00000000E+00
  0.00000000E+00  0.00000000E+00  0.00000000E+00
  0.00000000E+00  0.00000000E+00  0.00000000E+00
  0.00000000E+00  0.00000000E+00  0.00000000E+00
  0.00000000E+00  0.00000000E+00  0.00000000E+00
  0.00000000E+00  0.00000000E+00  0.00000000E+00
  0.00000000E+00  0.00000000E+00  0.00000000E+00
  0.00000000E+00  0.00000000E+00  0.00000000E+00
  0.00000000E+00  0.00000000E+00  0.00000000E+00
  0.00000000E+00  0.00000000E+00  0.00000000E+00
  0.00000000E+00  0.00000000E+00  0.00000000E+00
  0.00000000E+00  0.00000000E+00  0.00000000E+00
  0.00000000E+00  0.00000000E+00  0.00000000E+00
  0.00000000E+00  0.00000000E+00  0.00000000E+00
  0.00000000E+00  0.00000000E+00  0.00000000E+00
  0.00000000E+00  0.00000000E+00  0.00000000E+00
  0.00000000E+00  0.00000000E+00  0.00000000E+00
  0.00000000E+00  0.00000000E+00  0.00000000E+00
  0.00000000E+00  0.00000000E+00  0.00000000E+00
  0.00000000E+00  0.00000000E+00  0.00000000E+00
  0.00000000E+00  0.00000000E+00  0.00000000E+00
  0.00000000E+00  0.00000000E+00  0.00000000E+00
  0.00000000E+00  0.00000000E+00  0.00000000E+00
