title                                   
    1.000000000000000     
     9.6990971211176529   -0.0477455855213933    0.0536142960422090
    -0.0478621997124898    9.7352520529527560    0.0177706358575097
     0.0357005630882894    0.0117801164594449    6.4763276280452056
   Hf   Mo   Nb   Ti   V 
     3    11    15     3     4
Direct
  0.5034398201571715  0.1644273069002665  0.2708942193859904
  0.6664315112377062  0.6648802153017483  0.4832475158411527
  0.1635868665529925  0.8346303726829989  0.2491389206810563
  0.6704047793418096 -0.0049946673561116  0.5090647747429876
  0.4988288947227850  0.8386441398967120  0.2457196667091829
  0.8368535200582881  0.8421827139559341  0.7411586098092275
 -0.0051577503299397 -0.0012799853978901 -0.0049199708417599
  0.3334751599911349  0.3361998133435776  0.5089155674859239
  0.5007124632819304  0.4930637969413253  0.2468118569731558
  0.6663292785304542  0.3352696201668328  0.0031951086558045
 -0.0027837698536399  0.6692149054941142  0.4977151312089322
  0.1665877552898778  0.8385345485167612  0.7418752647956162
  0.3349687848679675  0.6656176458510891 -0.0066930267142648
  0.0009640711931815  0.3341368840161042 -0.0011977979942178
  0.8343287955055043  0.4934956199858844  0.7448469757875271
  0.1653182136981391  0.1637223676448239  0.2635276746233723
  0.4979853223516226  0.4950613883977967  0.7527140862334994
  0.1671724589104435  0.4983078935033450  0.7425870527433386
  0.3397924255333140  0.6687725588202833  0.4938392912036685
  0.8292355681704890  0.1679280106466276  0.2529197686863066
  0.1636374015745527  0.5026723631751194  0.2447998984249570
  0.8402116008836468  0.8429371569681601  0.2408903840138717
 -0.0031783111180309  0.3291107310623310  0.4990365542161369
  0.5032768372422198  0.1676595303081184  0.7589385468598248
  0.6692108144045547  0.6736532538361188 -0.0077004218223040
  0.4983591926349842  0.8382332180300419  0.7515497213980582
  0.8327136997275514  0.1652087951454604  0.7573085015635697
  0.3366839834401810 -0.0020849660074350  0.0003365663588676
  0.3319942790087828  0.3368339219221927  0.0119943185968997
  0.1623731517054071  0.1643875806725289  0.7594270777451014
  0.8363692889047091  0.4888697069878141  0.2303587585565447
 -0.0017149223061795  0.6722258318324718 -0.0302903898149934
  0.3276802276005612 -0.0101428291692753  0.5248663096714387
  0.6675496277247097  0.3396924878948882  0.5068754840662127
  0.6686738739112735 -0.0060965280657566  0.0040770813937781
 -0.0023149145501582 -0.0009754039050045  0.5121709187555360
 
  0.00000000E+00  0.00000000E+00  0.00000000E+00
  0.00000000E+00  0.00000000E+00  0.00000000E+00
  0.00000000E+00  0.00000000E+00  0.00000000E+00
  0.00000000E+00  0.00000000E+00  0.00000000E+00
  0.00000000E+00  0.00000000E+00  0.00000000E+00
  0.00000000E+00  0.00000000E+00  0.00000000E+00
  0.00000000E+00  0.00000000E+00  0.00000000E+00
  0.00000000E+00  0.00000000E+00  0.00000000E+00
  0.00000000E+00  0.00000000E+00  0.00000000E+00
  0.00000000E+00  0.00000000E+00  0.00000000E+00
  0.00000000E+00  0.00000000E+00  0.00000000E+00
  0.00000000E+00  0.00000000E+00  0.00000000E+00
  0.00000000E+00  0.00000000E+00  0.00000000E+00
  0.00000000E+00  0.00000000E+00  0.00000000E+00
  0.00000000E+00  0.00000000E+00  0.00000000E+00
  0.00000000E+00  0.00000000E+00  0.00000000E+00
  0.00000000E+00  0.00000000E+00  0.00000000E+00
  0.00000000E+00  0.00000000E+00  0.00000000E+00
  0.00000000E+00  0.00000000E+00  0.00000000E+00
  0.00000000E+00  0.00000000E+00  0.00000000E+00
  0.00000000E+00  0.00000000E+00  0.00000000E+00
  0.00000000E+00  0.00000000E+00  0.00000000E+00
  0.00000000E+00  0.00000000E+00  0.00000000E+00
  0.00000000E+00  0.00000000E+00  0.00000000E+00
  0.00000000E+00  0.00000000E+00  0.00000000E+00
  0.00000000E+00  0.00000000E+00  0.00000000E+00
  0.00000000E+00  0.00000000E+00  0.00000000E+00
  0.00000000E+00  0.00000000E+00  0.00000000E+00
  0.00000000E+00  0.00000000E+00  0.00000000E+00
  0.00000000E+00  0.00000000E+00  0.00000000E+00
  0.00000000E+00  0.00000000E+00  0.00000000E+00
  0.00000000E+00  0.00000000E+00  0.00000000E+00
  0.00000000E+00  0.00000000E+00  0.00000000E+00
  0.00000000E+00  0.00000000E+00  0.00000000E+00
  0.00000000E+00  0.00000000E+00  0.00000000E+00
  0.00000000E+00  0.00000000E+00  0.00000000E+00
