title                                   
    1.000000000000000     
    10.0183085875812683   -0.0117633181042585   -0.0057397504424314
    -0.0115361216228248    9.9490882880955542    0.0375031345791689
    -0.0038666262731101    0.0249211453346529    6.7485979497949593
   Hf   Nb   V    W    Zr
    15     4    11     3     3
Direct
  0.8413052427704493  0.4942515801849497  0.2502001128159818
 -0.0118366945840129  0.0076746358220958 -0.0230745506629542
  0.4945103113176622  0.8406939329400062  0.2435042615270958
  0.1614193326986286  0.4887323259167775  0.7391638096704255
  0.5230939974593589  0.5015279787447445  0.2635407793233288
  0.8285700370594747  0.8278863559014036  0.2269428999840206
  0.1809655697495303  0.1680829032814861  0.7392981942870138
  0.6510108138673821  0.3153044905451752 -0.0193641248256632
  0.1665918027298670  0.1720227550776576  0.2407942050755398
  0.8353909527655762  0.1825437674254263  0.2588011565441996
 -0.0242222549331873 -0.0168679937395905  0.5261940628951649
  0.3146102958805546  0.6348768474146926  0.0373392551903307
  0.1820604230199221  0.8319584783492482  0.7447551690393465
  0.4911250893179518  0.4975470904019404  0.7366149605277716
  0.1752336453808763  0.8448513646049748  0.2652199941019982
  0.0132552061113823  0.6657189735722977  0.0104568969052230
  0.6642302318895349  0.0099506436398879 -0.0147586556689829
  0.6591538799416584  0.0140452453928696  0.5059863510791462
  0.3377441232855700  0.3330513811694665  0.4573135112422054
  0.3620892887777872  0.0369480556172858 -0.0051308690504271
  0.4930596564696464  0.1671043314491905  0.7264153241701155
  0.4951168108303284  0.1655664643276595  0.2524091390897241
 -0.0050522366176946  0.3292808972221563  0.5218935698754562
  0.0001497797160749  0.6702989884596875  0.5014368012129354
  0.3647232772672405  0.0271008150430047  0.4923643285096764
 -0.0134931510512678  0.3141635282574066 -0.0333223048535210
  0.3532037849790746  0.3182066332725871  0.0121444678841099
  0.1438209076041304  0.5057593083748202  0.2882189622298049
  0.8283679135848427  0.8212827647638555  0.7946224622353568
  0.6622468901987795  0.3098885249944161  0.5205821988778201
  0.8264343105830939  0.1723901989543611  0.7393540280223427
  0.3214952650799852  0.6563730378816049  0.4786052657607262
  0.6675132365875112  0.6669324096859787 -0.0142131546440784
  0.6900410790420453  0.6918025378215841  0.5306881143931049
  0.4883522609535667  0.8380551480628035  0.7548586121018730
  0.8377189202666754  0.4949935991660894  0.7501447651337869
 
  0.00000000E+00  0.00000000E+00  0.00000000E+00
  0.00000000E+00  0.00000000E+00  0.00000000E+00
  0.00000000E+00  0.00000000E+00  0.00000000E+00
  0.00000000E+00  0.00000000E+00  0.00000000E+00
  0.00000000E+00  0.00000000E+00  0.00000000E+00
  0.00000000E+00  0.00000000E+00  0.00000000E+00
  0.00000000E+00  0.00000000E+00  0.00000000E+00
  0.00000000E+00  0.00000000E+00  0.00000000E+00
  0.00000000E+00  0.00000000E+00  0.00000000E+00
  0.00000000E+00  0.00000000E+00  0.00000000E+00
  0.00000000E+00  0.00000000E+00  0.00000000E+00
  0.00000000E+00  0.00000000E+00  0.00000000E+00
  0.00000000E+00  0.00000000E+00  0.00000000E+00
  0.00000000E+00  0.00000000E+00  0.00000000E+00
  0.00000000E+00  0.00000000E+00  0.00000000E+00
  0.00000000E+00  0.00000000E+00  0.00000000E+00
  0.00000000E+00  0.00000000E+00  0.00000000E+00
  0.00000000E+00  0.00000000E+00  0.00000000E+00
  0.00000000E+00  0.00000000E+00  0.00000000E+00
  0.00000000E+00  0.00000000E+00  0.00000000E+00
  0.00000000E+00  0.00000000E+00  0.00000000E+00
  0.00000000E+00  0.00000000E+00  0.00000000E+00
  0.00000000E+00  0.00000000E+00  0.00000000E+00
  0.00000000E+00  0.00000000E+00  0.00000000E+00
  0.00000000E+00  0.00000000E+00  0.00000000E+00
  0.00000000E+00  0.00000000E+00  0.00000000E+00
  0.00000000E+00  0.00000000E+00  0.00000000E+00
  0.00000000E+00  0.00000000E+00  0.00000000E+00
  0.00000000E+00  0.00000000E+00  0.00000000E+00
  0.00000000E+00  0.00000000E+00  0.00000000E+00
  0.00000000E+00  0.00000000E+00  0.00000000E+00
  0.00000000E+00  0.00000000E+00  0.00000000E+00
  0.00000000E+00  0.00000000E+00  0.00000000E+00
  0.00000000E+00  0.00000000E+00  0.00000000E+00
  0.00000000E+00  0.00000000E+00  0.00000000E+00
  0.00000000E+00  0.00000000E+00  0.00000000E+00
