title                                   
    1.000000000000000     
     9.2351640012725991    0.0545366783454458    0.0164926152164114
     0.0543900010971343    9.2720173606556759    0.0209298129550057
     0.0109806997721094    0.0139017093360370    6.2413912464411583
   Cr   Hf   Mo
    18     8    10
Direct
  0.6753961161889206  0.0021757277311759  0.4926124008809744
  0.8321049332601842  0.8336001041955655  0.7388562443282427
  0.6580773187759840  0.6764617280911803  0.4826931309298101
  0.3355866985208357  0.6553513071104564  0.4941125677054686
  0.3272515181372991  0.3305044458011456  0.5001544615161916
  0.1710667993596245  0.1640863003204469  0.2706340697434322
  0.4963749894385257  0.5093358774656728  0.2642804691062937
  0.1687790540030559  0.5010169058389654  0.7362175650605961
  0.1739256799139823  0.8291966058448279  0.2541926046294117
  0.5052304243929110  0.8217800691872531  0.2542864542078423
  0.1683753206013795  0.1670535100906797  0.7259777479194859
  0.8287984747140630  0.8316485830753513  0.2642222907204348
  0.8354248645221841  0.1699755010527111  0.7269661271576252
  0.4924836952939090  0.5063467915718535  0.7322886675320655
  0.6599634949455327  0.6762912265004545  0.0181174969838435
  0.4949377520530203  0.1599018608388983  0.2652862571253412
  0.8331013954717136  0.1666581619624807  0.2763033427293398
  0.0079739119621334  0.3231629799001718  0.5056942727139861
  0.8247972598746971  0.5145494678200958  0.7410713340134178
  0.6550215821667392  0.3291231466198363  0.0028214910330378
  0.0002756299918984  0.0018645501463231  0.0042142082521960
  0.3316913656847565  0.3317374425715348 -0.0007556827522535
  0.5058395348845500  0.8242168474128762  0.7393511165347434
  0.8298171985915068  0.5091690738652069  0.2606881497431568
  0.0058532644852890  0.3251540290655093 -0.0040783624027602
  0.6747380340277765  0.0001843422457652  0.0105662966423071
  0.0086901724563862  0.6783355230505969  0.4996481959987174
  0.6551093245494330  0.3278063797268480  0.4973584353095945
 -0.0022972160929869  0.0060278903622070  0.4995868067181634
  0.1704712760446575  0.5018598442678047  0.2645927768328789
  0.4956372390758458  0.1600359900419003  0.7329311618367221
  0.0051838275464672  0.6776267378850044  0.0004901286143744
  0.3321309078351178  0.0008585533310430  0.4884565372914008
  0.1735177401439265  0.8293129771884700  0.7455393201553732
  0.3319511088835184 -0.0013344706871817  0.0082023516142703
  0.3367193082951626  0.6589239885068693  0.0064195635742749
 
  0.00000000E+00  0.00000000E+00  0.00000000E+00
  0.00000000E+00  0.00000000E+00  0.00000000E+00
  0.00000000E+00  0.00000000E+00  0.00000000E+00
  0.00000000E+00  0.00000000E+00  0.00000000E+00
  0.00000000E+00  0.00000000E+00  0.00000000E+00
  0.00000000E+00  0.00000000E+00  0.00000000E+00
  0.00000000E+00  0.00000000E+00  0.00000000E+00
  0.00000000E+00  0.00000000E+00  0.00000000E+00
  0.00000000E+00  0.00000000E+00  0.00000000E+00
  0.00000000E+00  0.00000000E+00  0.00000000E+00
  0.00000000E+00  0.00000000E+00  0.00000000E+00
  0.00000000E+00  0.00000000E+00  0.00000000E+00
  0.00000000E+00  0.00000000E+00  0.00000000E+00
  0.00000000E+00  0.00000000E+00  0.00000000E+00
  0.00000000E+00  0.00000000E+00  0.00000000E+00
  0.00000000E+00  0.00000000E+00  0.00000000E+00
  0.00000000E+00  0.00000000E+00  0.00000000E+00
  0.00000000E+00  0.00000000E+00  0.00000000E+00
  0.00000000E+00  0.00000000E+00  0.00000000E+00
  0.00000000E+00  0.00000000E+00  0.00000000E+00
  0.00000000E+00  0.00000000E+00  0.00000000E+00
  0.00000000E+00  0.00000000E+00  0.00000000E+00
  0.00000000E+00  0.00000000E+00  0.00000000E+00
  0.00000000E+00  0.00000000E+00  0.00000000E+00
  0.00000000E+00  0.00000000E+00  0.00000000E+00
  0.00000000E+00  0.00000000E+00  0.00000000E+00
  0.00000000E+00  0.00000000E+00  0.00000000E+00
  0.00000000E+00  0.00000000E+00  0.00000000E+00
  0.00000000E+00  0.00000000E+00  0.00000000E+00
  0.00000000E+00  0.00000000E+00  0.00000000E+00
  0.00000000E+00  0.00000000E+00  0.00000000E+00
  0.00000000E+00  0.00000000E+00  0.00000000E+00
  0.00000000E+00  0.00000000E+00  0.00000000E+00
  0.00000000E+00  0.00000000E+00  0.00000000E+00
  0.00000000E+00  0.00000000E+00  0.00000000E+00
  0.00000000E+00  0.00000000E+00  0.00000000E+00
