title                                   
    1.000000000000000     
     9.8480957534024203    0.0164616617869606    0.0185762056830149
     0.0165686255412034    9.8111478305479380    0.0199371927118968
     0.0123132099645146    0.0134036355671899    6.5073701984061119
   Hf   Mo   V    Zr
    10    19     4     3
Direct
  0.4914167822912567  0.4925831424685566  0.7507004459431392
  0.5053520007340289  0.1782608141890698  0.2474176107186533
  0.6706034424429270  0.6736594903378120  0.0150323470207003
  0.8443599310038872  0.4918234718674523  0.7512713439015657
  0.8329238883162977  0.1709506642238452  0.7522126848423334
  0.3293920592986662  0.0149395850975154 -0.0057206048162713
  0.1627381028042809  0.8210133961301991  0.7470351466982936
  0.6642742202607634 -0.0116399990178740  0.4992530357172123
  0.4810888100801473  0.8270204652628470  0.7475877847173878
  0.1629398445722187  0.8288861077876292  0.2562469832578791
  0.4888687313167241  0.8362436488010645  0.2504751112722184
  0.3392452448787812  0.6603549581122592  0.0108337961673039
  0.0157671301179090  0.3289246360012130  0.5010762197531849
  0.1643742156816856  0.1695194025658595  0.2544392014665156
  0.8447101981131238  0.8373024823459967  0.7544315973655975
  0.8439778514160214  0.4975491476758334  0.2501350969726401
  0.8445416457335267  0.8391380782770935  0.2479635137324721
 -0.0043005632586212 -0.0029819770361143  0.5009552079766317
  0.3299584468435422  0.3250650096227410 -0.0111848210464699
  0.3309661035779813  0.0106405928884405  0.4990393248462456
 -0.0101163529499184  0.6650260743286341  0.0055057301387626
  0.1641594885019797  0.1691294636814406  0.7420744908881454
  0.6617896411855727 -0.0061231201793322 -0.0004523105056827
  0.3342618278428058  0.6555194629388109  0.4975020376034117
  0.0022172581813590  0.0013979080521263 -0.0021493170947720
 -0.0057118575599181  0.6623474662616132  0.5008950838707389
  0.0120141011497449  0.3326227257199174 -0.0026779750805679
  0.4958841291908548  0.4944976793120171  0.2545955241023898
  0.6644675832810042  0.3424425468905766  0.0043797276445164
  0.3323835181220506  0.3262469215037851  0.5086032484840027
  0.4987874088971487  0.1826868432470777  0.7496300575566851
  0.1678041205203479  0.4926677148000789  0.7508922308833725
  0.6607435831836500  0.3515021087342912  0.4878652974307952
  0.1706439272442870  0.4980716057731733  0.2515439429204165
  0.8351345075244305  0.1725273610534580  0.2425061122630511
  0.6723390294594520  0.6701841202808944  0.4900850923875026
 
  0.00000000E+00  0.00000000E+00  0.00000000E+00
  0.00000000E+00  0.00000000E+00  0.00000000E+00
  0.00000000E+00  0.00000000E+00  0.00000000E+00
  0.00000000E+00  0.00000000E+00  0.00000000E+00
  0.00000000E+00  0.00000000E+00  0.00000000E+00
  0.00000000E+00  0.00000000E+00  0.00000000E+00
  0.00000000E+00  0.00000000E+00  0.00000000E+00
  0.00000000E+00  0.00000000E+00  0.00000000E+00
  0.00000000E+00  0.00000000E+00  0.00000000E+00
  0.00000000E+00  0.00000000E+00  0.00000000E+00
  0.00000000E+00  0.00000000E+00  0.00000000E+00
  0.00000000E+00  0.00000000E+00  0.00000000E+00
  0.00000000E+00  0.00000000E+00  0.00000000E+00
  0.00000000E+00  0.00000000E+00  0.00000000E+00
  0.00000000E+00  0.00000000E+00  0.00000000E+00
  0.00000000E+00  0.00000000E+00  0.00000000E+00
  0.00000000E+00  0.00000000E+00  0.00000000E+00
  0.00000000E+00  0.00000000E+00  0.00000000E+00
  0.00000000E+00  0.00000000E+00  0.00000000E+00
  0.00000000E+00  0.00000000E+00  0.00000000E+00
  0.00000000E+00  0.00000000E+00  0.00000000E+00
  0.00000000E+00  0.00000000E+00  0.00000000E+00
  0.00000000E+00  0.00000000E+00  0.00000000E+00
  0.00000000E+00  0.00000000E+00  0.00000000E+00
  0.00000000E+00  0.00000000E+00  0.00000000E+00
  0.00000000E+00  0.00000000E+00  0.00000000E+00
  0.00000000E+00  0.00000000E+00  0.00000000E+00
  0.00000000E+00  0.00000000E+00  0.00000000E+00
  0.00000000E+00  0.00000000E+00  0.00000000E+00
  0.00000000E+00  0.00000000E+00  0.00000000E+00
  0.00000000E+00  0.00000000E+00  0.00000000E+00
  0.00000000E+00  0.00000000E+00  0.00000000E+00
  0.00000000E+00  0.00000000E+00  0.00000000E+00
  0.00000000E+00  0.00000000E+00  0.00000000E+00
  0.00000000E+00  0.00000000E+00  0.00000000E+00
  0.00000000E+00  0.00000000E+00  0.00000000E+00
