title                                   
    1.000000000000000     
     9.7424564684296211   -0.0127664413104662   -0.0148605871837516
    -0.0127486891209980    9.7644770860915191   -0.0128635385390945
    -0.0098806132778879   -0.0085908055670195    6.5086897371899521
   Nb   Ta   V 
    18    10     8
Direct
  0.1611348386665837  0.1603554253504765  0.7508236921178610
  0.5036092013756454  0.5007033520437474  0.7514440541498030
  0.4992364874046332  0.1657140211602890  0.7506852114990009
  0.3316162904155017  0.3320234557590254  0.5042518311840206
  0.5034355911038501  0.4989492010620620  0.2475663912435064
  0.6711001462724294  0.6632309819705677 -0.0036090674776559
  0.8417500973357531  0.1686028914802069  0.2437103382434392
  0.6691384081721743  0.0026749720935197  0.0017618385482383
  0.3282735566440229  0.6694142151098280  0.4962793126179234
  0.4944424793198212  0.8350551604913760  0.2502766493074744
  0.6701390344624133  0.6651162511091945  0.5012097547825597
  0.0018972317455632  0.6652178588568461  0.5034179839650017
  0.3262081465045316  0.6651990256137524 -0.0013265529989892
  0.3286267568865032 -0.0003076637066307  0.0039417215101338
  0.8414831151957315  0.8365212601846959  0.2502580210218909
  0.8380698621479850  0.8362752607227755  0.7490328386647300
  0.8385640637821177  0.1690355229584302  0.7616526112163308
  0.4977164989483728  0.1670191273239609  0.2495076865167503
  0.6709747732639303  0.3326294278147946  0.5064035922508257
  0.3299827444052328  0.3354587440646497 -0.0044561409206666
  0.6679678649635988  0.0028080071785609  0.4978041480566193
 -0.0015712362756707  0.3358076931214875  0.5131712034554359
  0.1598059899710830  0.1600179250548555  0.2516345266297252
  0.8346771391320736  0.4939383794852837  0.2411954616925601
  0.0033146521422095  0.6655930417866636 -0.0048996280226507
  0.1628983418661344  0.4964058433189721  0.2494233822612691
  0.1661638609031237  0.8405334638349840  0.7421363112189138
  0.4953469941160706  0.8351805591031546  0.7458217304001774
  0.1613818524282364  0.4984360936465640  0.7530611219466344
  0.1640325663725091  0.8450204505454314  0.2548359214785095
  0.8350156299291298  0.4924140641850591  0.7627548662130150
  0.6699135885524973  0.3369896549987352 -0.0049469239485053
  0.0020518763980803 -0.0062752156022801  0.0059199144554760
  0.3284469404946221 -0.0029329169434174  0.4929939500459274
 -0.0011079110922024  0.3409145739700947 -0.0081880178896935
  0.0042625260457062 -0.0037401091477185  0.4944502645644069
 
  0.00000000E+00  0.00000000E+00  0.00000000E+00
  0.00000000E+00  0.00000000E+00  0.00000000E+00
  0.00000000E+00  0.00000000E+00  0.00000000E+00
  0.00000000E+00  0.00000000E+00  0.00000000E+00
  0.00000000E+00  0.00000000E+00  0.00000000E+00
  0.00000000E+00  0.00000000E+00  0.00000000E+00
  0.00000000E+00  0.00000000E+00  0.00000000E+00
  0.00000000E+00  0.00000000E+00  0.00000000E+00
  0.00000000E+00  0.00000000E+00  0.00000000E+00
  0.00000000E+00  0.00000000E+00  0.00000000E+00
  0.00000000E+00  0.00000000E+00  0.00000000E+00
  0.00000000E+00  0.00000000E+00  0.00000000E+00
  0.00000000E+00  0.00000000E+00  0.00000000E+00
  0.00000000E+00  0.00000000E+00  0.00000000E+00
  0.00000000E+00  0.00000000E+00  0.00000000E+00
  0.00000000E+00  0.00000000E+00  0.00000000E+00
  0.00000000E+00  0.00000000E+00  0.00000000E+00
  0.00000000E+00  0.00000000E+00  0.00000000E+00
  0.00000000E+00  0.00000000E+00  0.00000000E+00
  0.00000000E+00  0.00000000E+00  0.00000000E+00
  0.00000000E+00  0.00000000E+00  0.00000000E+00
  0.00000000E+00  0.00000000E+00  0.00000000E+00
  0.00000000E+00  0.00000000E+00  0.00000000E+00
  0.00000000E+00  0.00000000E+00  0.00000000E+00
  0.00000000E+00  0.00000000E+00  0.00000000E+00
  0.00000000E+00  0.00000000E+00  0.00000000E+00
  0.00000000E+00  0.00000000E+00  0.00000000E+00
  0.00000000E+00  0.00000000E+00  0.00000000E+00
  0.00000000E+00  0.00000000E+00  0.00000000E+00
  0.00000000E+00  0.00000000E+00  0.00000000E+00
  0.00000000E+00  0.00000000E+00  0.00000000E+00
  0.00000000E+00  0.00000000E+00  0.00000000E+00
  0.00000000E+00  0.00000000E+00  0.00000000E+00
  0.00000000E+00  0.00000000E+00  0.00000000E+00
  0.00000000E+00  0.00000000E+00  0.00000000E+00
  0.00000000E+00  0.00000000E+00  0.00000000E+00
