title                                   
    1.000000000000000     
     9.3634050876687613    0.0014941517502213   -0.1218530941705328
     0.0012711822189625    9.5543552342823812    0.0297875499952772
    -0.0818085423838561    0.0198881658160309    6.2832411933766545
   Cr   Hf   V    W 
     9     9     9     9
Direct
  0.3385365079649898  0.6480145431861289  0.0313866366465489
  0.5017208940804310  0.1723523371843789  0.2336310828957989
  0.4990799837282797  0.5073804379468339  0.2484467494577440
 -0.0069473277729919  0.3515442807884772 -0.0111910056813789
  0.1621188196158401  0.1710825006013664  0.7395738146044681
  0.3519146817445936  0.0195178497360156  0.0012376717500972
  0.6721197582620525  0.6673302052137010  0.4824745918320271
  0.1717228591471707  0.8040896116932216  0.2627668898870261
  0.3216761311145432  0.6623124692537818  0.4716155603554478
  0.5024853701737884  0.5129540919006718  0.7356803611216471
  0.6645102322524425  0.0018397216271463  0.4884323223253719
  0.0063001977971183 -0.0109623269474683 -0.0018755356010715
  0.8342742815178577  0.1798033301474822  0.2430837283633565
  0.1865989777350275  0.8154530960721181  0.7700392609944436
  0.3285948427641207  0.0027914646563379  0.4813946819324666
  0.5012178915866777  0.8219937464012971  0.7536602155046070
  0.3326581751793745  0.3373652428303435 -0.0013941898268454
  0.1523279444246098  0.1810218834482813  0.2471422721799134
 -0.0001141716541305  0.6614830188220101  0.0140770507814533
  0.6746488605788281  0.6626329790675407  0.0123445945581678
  0.6697201343188222 -0.0005633069155015 -0.0045576815988956
  0.1576819218313445  0.5019188671377387  0.7509632528013487
  0.8341127512282308  0.4982835730769295  0.7602140629027520
  0.6601065276870081  0.3356696543013200  0.4958503235310314
  0.1638306991487565  0.5044307130816139  0.2589274768452391
  0.0004373217445751 -0.0032161071822039  0.5204609193342478
  0.6587685495325055  0.3370440308825655  0.0008957980053687
  0.8334370437309919  0.1787101519501133  0.7558496167914768
  0.4959935993001982  0.8213574491733761  0.2318825432025530
  0.3324991917116108  0.3364940611859106  0.4955790621450888
  0.8336250476699036  0.8193278764043161  0.7522231006881153
  0.0007429317122675  0.6619528739610147  0.5039575704107554
  0.8281627123317976  0.5005245435458577  0.2535129767323099
  0.5038421898523934  0.1718318248769195  0.7508397410762071
 -0.0008878328065729  0.3436602445476222  0.5198783816203461
  0.8324823007655436  0.8225730663427446  0.2509961014307671
 
  0.00000000E+00  0.00000000E+00  0.00000000E+00
  0.00000000E+00  0.00000000E+00  0.00000000E+00
  0.00000000E+00  0.00000000E+00  0.00000000E+00
  0.00000000E+00  0.00000000E+00  0.00000000E+00
  0.00000000E+00  0.00000000E+00  0.00000000E+00
  0.00000000E+00  0.00000000E+00  0.00000000E+00
  0.00000000E+00  0.00000000E+00  0.00000000E+00
  0.00000000E+00  0.00000000E+00  0.00000000E+00
  0.00000000E+00  0.00000000E+00  0.00000000E+00
  0.00000000E+00  0.00000000E+00  0.00000000E+00
  0.00000000E+00  0.00000000E+00  0.00000000E+00
  0.00000000E+00  0.00000000E+00  0.00000000E+00
  0.00000000E+00  0.00000000E+00  0.00000000E+00
  0.00000000E+00  0.00000000E+00  0.00000000E+00
  0.00000000E+00  0.00000000E+00  0.00000000E+00
  0.00000000E+00  0.00000000E+00  0.00000000E+00
  0.00000000E+00  0.00000000E+00  0.00000000E+00
  0.00000000E+00  0.00000000E+00  0.00000000E+00
  0.00000000E+00  0.00000000E+00  0.00000000E+00
  0.00000000E+00  0.00000000E+00  0.00000000E+00
  0.00000000E+00  0.00000000E+00  0.00000000E+00
  0.00000000E+00  0.00000000E+00  0.00000000E+00
  0.00000000E+00  0.00000000E+00  0.00000000E+00
  0.00000000E+00  0.00000000E+00  0.00000000E+00
  0.00000000E+00  0.00000000E+00  0.00000000E+00
  0.00000000E+00  0.00000000E+00  0.00000000E+00
  0.00000000E+00  0.00000000E+00  0.00000000E+00
  0.00000000E+00  0.00000000E+00  0.00000000E+00
  0.00000000E+00  0.00000000E+00  0.00000000E+00
  0.00000000E+00  0.00000000E+00  0.00000000E+00
  0.00000000E+00  0.00000000E+00  0.00000000E+00
  0.00000000E+00  0.00000000E+00  0.00000000E+00
  0.00000000E+00  0.00000000E+00  0.00000000E+00
  0.00000000E+00  0.00000000E+00  0.00000000E+00
  0.00000000E+00  0.00000000E+00  0.00000000E+00
  0.00000000E+00  0.00000000E+00  0.00000000E+00
