title                                   
    1.000000000000000     
    10.0201945685035039    0.0622425225330982    0.1077582936208586
     0.0623842986224477   10.1110024213510759   -0.0023952458966576
     0.0729999871149377   -0.0023008081176031    6.8068124662943932
   Hf   Nb   Ta   V    Zr
     7     7     7     7     8
Direct
  0.4942559793577579  0.8202795659408885  0.2485079305361182
  0.8210903973563780  0.1574062651233592  0.7389774343305568
  0.0038712006232826  0.3309432578904168 -0.0041388491369041
  0.0059537198958098  0.3390009024356536  0.5240989087494077
  0.1699319728433058  0.5159390188015041  0.2408758953017903
  0.8360546008592380  0.8383248754637260  0.7245846193237172
  0.1464107709364987  0.8254869657539624  0.2662072838545487
  0.1700350939906085  0.5080100936138223  0.7732721740889259
  0.6728170674818069  0.6760973040040154 -0.0174559997071262
  0.6684471232142972 -0.0165770061538576  0.0098146234715270
  0.1659253032383944  0.1580008594656579  0.2698582497614725
  0.6665108837644510  0.3348756755668854  0.4862459637332423
  0.6894489675561901  0.3409903897980330  0.0032270259018648
  0.3297555248275004  0.0014046961486359  0.5042559389747092
  0.3327462724130886  0.6701102972987477  0.5291473335712420
  0.5057476647901535  0.1652746526931436  0.2428979999557951
  0.3283762718739367  0.6846235232408918 -0.0332481605816247
  0.6494258013849479 -0.0175508301711917  0.4837499971590808
 -0.0013035239097134  0.6461843608947080  0.5347940787027422
  0.3209241397702313  0.3161009162079414  0.0046424805407308
  0.1566546881106714  0.8348515459005795  0.7363604016545148
 -0.0010484026400014  0.6637194795741806 -0.0298180683788446
  0.8306318854928723  0.5144713670338183  0.7664506443433586
  0.5072124104324843  0.8262322805673639  0.7283558546103078
  0.6643604302033215  0.6880731752276157  0.5022519269895191
  0.1734110253496715  0.1531859723842123  0.7374264320326904
  0.0253272496626529  0.0211491643278596  0.5276582548860913
  0.8127777067809018  0.8214699892612543  0.2438853412123646
  0.3304122788520027 -0.0017557632124506 -0.0082577480817166
  0.0005051260364969  0.0030911551982218 -0.0057414826651363
  0.5010161432054328  0.5033582590140233  0.2430452894079178
  0.8333113670143460  0.5208451649629210  0.2495104474581194
  0.5115866691076854  0.1680067604318680  0.7537272622138134
  0.8312144877207865  0.1567310295633373  0.2711325423574449
  0.3288353899920449  0.3295059957551058  0.5053818498628508
  0.5173663124104650  0.5021386399931447  0.7483161235648883
 
  0.00000000E+00  0.00000000E+00  0.00000000E+00
  0.00000000E+00  0.00000000E+00  0.00000000E+00
  0.00000000E+00  0.00000000E+00  0.00000000E+00
  0.00000000E+00  0.00000000E+00  0.00000000E+00
  0.00000000E+00  0.00000000E+00  0.00000000E+00
  0.00000000E+00  0.00000000E+00  0.00000000E+00
  0.00000000E+00  0.00000000E+00  0.00000000E+00
  0.00000000E+00  0.00000000E+00  0.00000000E+00
  0.00000000E+00  0.00000000E+00  0.00000000E+00
  0.00000000E+00  0.00000000E+00  0.00000000E+00
  0.00000000E+00  0.00000000E+00  0.00000000E+00
  0.00000000E+00  0.00000000E+00  0.00000000E+00
  0.00000000E+00  0.00000000E+00  0.00000000E+00
  0.00000000E+00  0.00000000E+00  0.00000000E+00
  0.00000000E+00  0.00000000E+00  0.00000000E+00
  0.00000000E+00  0.00000000E+00  0.00000000E+00
  0.00000000E+00  0.00000000E+00  0.00000000E+00
  0.00000000E+00  0.00000000E+00  0.00000000E+00
  0.00000000E+00  0.00000000E+00  0.00000000E+00
  0.00000000E+00  0.00000000E+00  0.00000000E+00
  0.00000000E+00  0.00000000E+00  0.00000000E+00
  0.00000000E+00  0.00000000E+00  0.00000000E+00
  0.00000000E+00  0.00000000E+00  0.00000000E+00
  0.00000000E+00  0.00000000E+00  0.00000000E+00
  0.00000000E+00  0.00000000E+00  0.00000000E+00
  0.00000000E+00  0.00000000E+00  0.00000000E+00
  0.00000000E+00  0.00000000E+00  0.00000000E+00
  0.00000000E+00  0.00000000E+00  0.00000000E+00
  0.00000000E+00  0.00000000E+00  0.00000000E+00
  0.00000000E+00  0.00000000E+00  0.00000000E+00
  0.00000000E+00  0.00000000E+00  0.00000000E+00
  0.00000000E+00  0.00000000E+00  0.00000000E+00
  0.00000000E+00  0.00000000E+00  0.00000000E+00
  0.00000000E+00  0.00000000E+00  0.00000000E+00
  0.00000000E+00  0.00000000E+00  0.00000000E+00
  0.00000000E+00  0.00000000E+00  0.00000000E+00
