title                                   
    1.000000000000000     
    10.0982353350051266   -0.0143532760819993   -0.0043906314999162
    -0.0142394164111054   10.1472059120217466   -0.0482368030096431
    -0.0031957355588205   -0.0319134111532979    6.8091041596080073
   Hf   Nb   Ta   V    Zr
     3    15     3     4    11
Direct
  0.0033945387231481  0.6590886229765216  0.0168099248847860
  0.0088918150461278  0.6663234423854022  0.4905866825444246
  0.3296158026293395  0.3295421036182806  0.4983752746442059
  0.6515766747371897  0.3333361544047018  0.5038107001422727
  0.1639213478111512  0.1572389489467760  0.2165787248425535
  0.6597289535807190  0.0109989344582798 -0.0092153593897033
  0.8222030087849019  0.4887784369747885  0.2842767157586246
  0.1634729343650892  0.8394882321012582  0.7676884586242189
  0.1757813113562340  0.8374010748331729  0.2347084284250234
  0.3316441432101647  0.0010845972688182 -0.0063263904732306
  0.1783654036194842  0.5024595763866466  0.7505543036446994
  0.5015306877364963  0.1683985921871157  0.7548154890689853
  0.3377299886840560  0.3398259530031209 -0.0001789241989727
  0.3330551277111394  0.6556735713909397  0.5020053541976081
  0.5027040675820023  0.8412317507865353  0.7493183374901565
  0.8305515176949811  0.1647934231970543  0.7528126978707406
  0.5045349408139395  0.1656795993274550  0.2431748239345644
  0.8288478432737663  0.8491432278605360  0.2334184718886518
  0.8285000628747997  0.4900158331328197  0.7208177614299991
  0.6623979069905942  0.0066758631419710  0.5074236232344009
  0.1622245103240718  0.1576309458511968  0.7835572807235828
  0.1970609581702670  0.5027988297056976  0.2515082547228614
  0.0112853916253448 -0.0033452520806898  0.0051280227546838
  0.4939473057943383  0.4928265752456586  0.7235019974296651
  0.4815966165268021  0.4932971907367033  0.2697012311999958
  0.0132525937795617  0.3315048049125321  0.4999644939190915
  0.8359954932924103  0.8452735641307580  0.7739024094183550
  0.3392223296201896  0.6586756170613851 -0.0072006720684696
  0.6598088321083572  0.6652530781992593  0.4992631429302172
  0.3303378149344163  0.0074146945502194  0.5032901414128480
  0.0044743086711450 -0.0057217191984753  0.4974343165147679
  0.0025290912344685  0.3472591130221628  0.0047475571058913
  0.6651760091186913  0.6537182852218090 -0.0002701641042206
  0.6561354102095625  0.3443474210370333 -0.0033405782792068
  0.8295418019324668  0.1605648622610267  0.2425045385224568
  0.4989634554325807  0.8413240509615296  0.2448529292334731
 
  0.00000000E+00  0.00000000E+00  0.00000000E+00
  0.00000000E+00  0.00000000E+00  0.00000000E+00
  0.00000000E+00  0.00000000E+00  0.00000000E+00
  0.00000000E+00  0.00000000E+00  0.00000000E+00
  0.00000000E+00  0.00000000E+00  0.00000000E+00
  0.00000000E+00  0.00000000E+00  0.00000000E+00
  0.00000000E+00  0.00000000E+00  0.00000000E+00
  0.00000000E+00  0.00000000E+00  0.00000000E+00
  0.00000000E+00  0.00000000E+00  0.00000000E+00
  0.00000000E+00  0.00000000E+00  0.00000000E+00
  0.00000000E+00  0.00000000E+00  0.00000000E+00
  0.00000000E+00  0.00000000E+00  0.00000000E+00
  0.00000000E+00  0.00000000E+00  0.00000000E+00
  0.00000000E+00  0.00000000E+00  0.00000000E+00
  0.00000000E+00  0.00000000E+00  0.00000000E+00
  0.00000000E+00  0.00000000E+00  0.00000000E+00
  0.00000000E+00  0.00000000E+00  0.00000000E+00
  0.00000000E+00  0.00000000E+00  0.00000000E+00
  0.00000000E+00  0.00000000E+00  0.00000000E+00
  0.00000000E+00  0.00000000E+00  0.00000000E+00
  0.00000000E+00  0.00000000E+00  0.00000000E+00
  0.00000000E+00  0.00000000E+00  0.00000000E+00
  0.00000000E+00  0.00000000E+00  0.00000000E+00
  0.00000000E+00  0.00000000E+00  0.00000000E+00
  0.00000000E+00  0.00000000E+00  0.00000000E+00
  0.00000000E+00  0.00000000E+00  0.00000000E+00
  0.00000000E+00  0.00000000E+00  0.00000000E+00
  0.00000000E+00  0.00000000E+00  0.00000000E+00
  0.00000000E+00  0.00000000E+00  0.00000000E+00
  0.00000000E+00  0.00000000E+00  0.00000000E+00
  0.00000000E+00  0.00000000E+00  0.00000000E+00
  0.00000000E+00  0.00000000E+00  0.00000000E+00
  0.00000000E+00  0.00000000E+00  0.00000000E+00
  0.00000000E+00  0.00000000E+00  0.00000000E+00
  0.00000000E+00  0.00000000E+00  0.00000000E+00
  0.00000000E+00  0.00000000E+00  0.00000000E+00
