title                                   
    1.000000000000000     
     9.8593759799246570   -0.0079767609758896    0.0225390968002186
    -0.0079908780129843    9.8290783929456378   -0.0387416622534119
     0.0150265803839483   -0.0257501085808460    6.5679179050838217
   Mo   Nb   Ta   Ti
     4    11    14     7
Direct
  0.8339969726095361  0.1655633277975887  0.7501419377189856
  0.6701090409284380  0.3331150249726873  0.5009797278535947
  0.8324201324301115  0.8326917506397294  0.2499808363571951
 -0.0013247450772017  0.6674687057643031  0.5005715205165475
  0.4985858299822954  0.1693903136619201  0.7397741151801523
  0.8329806123244314  0.4976465000107198  0.2585635223016503
  0.3325610167800276  0.6644050380285483  0.0005444480970676
  0.5025318445202074  0.4989017667161837  0.7445381314608472
 -0.0009600789318184 -0.0004993758192688  0.0045442855818504
  0.1677856476991784  0.8309570271286911  0.2526379157961552
  0.8287937695254891  0.1717837542031766  0.2523476893815340
  0.8363376559197065  0.5016038002070083  0.7447350032368172
  0.3315494820453066 -0.0023340107195913  0.4979404622844492
  0.3329474866324035  0.3368057321305901  0.5007424701398590
  0.5016087634343106  0.4983225087618040  0.2495634371248202
  0.6658400860263672  0.6692682567138756  0.4930799861733742
 -0.0033341892060686  0.6665625239307406  0.0094121975630777
 -0.0066467762686074  0.3309005217241427 -0.0045415174864531
  0.6739492522488117 -0.0005894759683726  0.4976201033818256
  0.5015836700476402  0.8339015038328413  0.7491071154348777
  0.1629370659360026  0.8292597888001020  0.7489816237402388
  0.6693573642271203  0.0053236588958186 -0.0047236540709862
  0.8374080501815472  0.8296315092151199  0.7484473816370919
  0.6706585203703010  0.6670427636032790  0.0013315998808164
  0.1687453246070879  0.1703543678537958  0.2539994732079882
  0.5015731276623629  0.1675952252002111  0.2541852514623767
 -0.0051024734815390  0.0039277630008345  0.4998626132720055
  0.3358198163575926  0.6653979570981096  0.4983853214842945
  0.1615623239160236  0.4988088300343722  0.2615295703053598
  0.1704195338289747  0.1611267748532094  0.7483374962166487
  0.3375553097940428  0.3329587691936388  0.0010366331673077
  0.4988514595721131  0.8391416172486890  0.2437448461271198
  0.6689250240983267  0.3306167615157339 -0.0075635153787114
  0.1607304311034788  0.5062585185180414  0.7452408792200089
 -0.0048275590214042  0.3228103634407740  0.5163626818912302
  0.3340712071774045  0.0038801378109538 -0.0014415902610160
 
  0.00000000E+00  0.00000000E+00  0.00000000E+00
  0.00000000E+00  0.00000000E+00  0.00000000E+00
  0.00000000E+00  0.00000000E+00  0.00000000E+00
  0.00000000E+00  0.00000000E+00  0.00000000E+00
  0.00000000E+00  0.00000000E+00  0.00000000E+00
  0.00000000E+00  0.00000000E+00  0.00000000E+00
  0.00000000E+00  0.00000000E+00  0.00000000E+00
  0.00000000E+00  0.00000000E+00  0.00000000E+00
  0.00000000E+00  0.00000000E+00  0.00000000E+00
  0.00000000E+00  0.00000000E+00  0.00000000E+00
  0.00000000E+00  0.00000000E+00  0.00000000E+00
  0.00000000E+00  0.00000000E+00  0.00000000E+00
  0.00000000E+00  0.00000000E+00  0.00000000E+00
  0.00000000E+00  0.00000000E+00  0.00000000E+00
  0.00000000E+00  0.00000000E+00  0.00000000E+00
  0.00000000E+00  0.00000000E+00  0.00000000E+00
  0.00000000E+00  0.00000000E+00  0.00000000E+00
  0.00000000E+00  0.00000000E+00  0.00000000E+00
  0.00000000E+00  0.00000000E+00  0.00000000E+00
  0.00000000E+00  0.00000000E+00  0.00000000E+00
  0.00000000E+00  0.00000000E+00  0.00000000E+00
  0.00000000E+00  0.00000000E+00  0.00000000E+00
  0.00000000E+00  0.00000000E+00  0.00000000E+00
  0.00000000E+00  0.00000000E+00  0.00000000E+00
  0.00000000E+00  0.00000000E+00  0.00000000E+00
  0.00000000E+00  0.00000000E+00  0.00000000E+00
  0.00000000E+00  0.00000000E+00  0.00000000E+00
  0.00000000E+00  0.00000000E+00  0.00000000E+00
  0.00000000E+00  0.00000000E+00  0.00000000E+00
  0.00000000E+00  0.00000000E+00  0.00000000E+00
  0.00000000E+00  0.00000000E+00  0.00000000E+00
  0.00000000E+00  0.00000000E+00  0.00000000E+00
  0.00000000E+00  0.00000000E+00  0.00000000E+00
  0.00000000E+00  0.00000000E+00  0.00000000E+00
  0.00000000E+00  0.00000000E+00  0.00000000E+00
  0.00000000E+00  0.00000000E+00  0.00000000E+00
