title                                   
    1.000000000000000     
     9.9738121768241577   -0.0365747021214500   -0.0979672364223093
    -0.0362782735091019   10.0020904489166398    0.0207899687091868
    -0.0650865848238962    0.0139467611448655    6.8170415531450521
   Hf   Ta   Ti   V    Zr
     7     7     8     7     7
Direct
  0.3414675414265754  0.6744242504439365  0.5008690343135452
  0.1665390674402170  0.5280218494080351  0.2152674728673892
  0.1614908507932951  0.5009675688613134  0.7653602525903849
  0.6429639751741938 -0.0231420544649524 -0.0146625803958898
  0.3425895904065929 -0.0182420145192281  0.5005138435755198
  0.0213361453843370  0.0345934648537673  0.4560440552758381
  0.1724613370330050  0.1653041514620118  0.7767413022383128
  0.1639400676135716  0.8287117405078627  0.2285784165689390
 -0.0408625100584955  0.6688430037522370  0.0097246459296726
 -0.0089268650071822  0.3446740499641586  0.4889474472342041
  0.5081128746909842  0.5033251204864843  0.7760127630263702
  0.6741669176718419  0.3486304956983487  0.0188015482478921
  0.6652024797710768  0.6565944047703587  0.5049455454896885
 -0.0071035526521746  0.6510608925360961  0.4896192377422032
 -0.0057412402100202  0.0098400445476007  0.0278217952418725
  0.3436290304726106  0.3403514938659609  0.0259736808361619
  0.6659183071240757  0.3665837521061182  0.4899290120401047
  0.8246068627074693  0.8296151482473408  0.7364854183865025
  0.8343187610644121  0.4968505827182336  0.7521418212109995
  0.3658204553785288  0.6997711776103590 -0.0135703858273034
  0.5097963808179489  0.5204200029484018  0.2190887813071764
  0.8036563554314591  0.1672197224272178  0.2736959822581020
  0.3435932351513925 -0.0212151881481082  0.0129134232845758
  0.8267124752756522  0.5081743681903805  0.2611959696327692
  0.6738502420123413  0.6648708549650573 -0.0031104186249087
  0.5237017008616855  0.8139326712327432  0.7308202625271827
  0.6408212657578745 -0.0330151817517567  0.5178139353300586
  0.2079104412553144  0.1378487186855794  0.1940866524271555
  0.5139358607747407  0.8204245284160583  0.2623543113811150
  0.5125755014424747  0.1585475581717146  0.2584136918582227
  0.8276626330551888  0.1622733660951143  0.7388492758876557
  0.5036594732672999  0.1790277339289413  0.7453905775710609
 -0.0005131982533203  0.3141582612526737  0.0504168762522769
  0.1452039905904270  0.8333029276923696  0.7601977852227716
  0.8247145607274364  0.8405238999788531  0.2742206280455624
  0.3107889856071679  0.3267266330587159  0.4681079390468161
 
  0.00000000E+00  0.00000000E+00  0.00000000E+00
  0.00000000E+00  0.00000000E+00  0.00000000E+00
  0.00000000E+00  0.00000000E+00  0.00000000E+00
  0.00000000E+00  0.00000000E+00  0.00000000E+00
  0.00000000E+00  0.00000000E+00  0.00000000E+00
  0.00000000E+00  0.00000000E+00  0.00000000E+00
  0.00000000E+00  0.00000000E+00  0.00000000E+00
  0.00000000E+00  0.00000000E+00  0.00000000E+00
  0.00000000E+00  0.00000000E+00  0.00000000E+00
  0.00000000E+00  0.00000000E+00  0.00000000E+00
  0.00000000E+00  0.00000000E+00  0.00000000E+00
  0.00000000E+00  0.00000000E+00  0.00000000E+00
  0.00000000E+00  0.00000000E+00  0.00000000E+00
  0.00000000E+00  0.00000000E+00  0.00000000E+00
  0.00000000E+00  0.00000000E+00  0.00000000E+00
  0.00000000E+00  0.00000000E+00  0.00000000E+00
  0.00000000E+00  0.00000000E+00  0.00000000E+00
  0.00000000E+00  0.00000000E+00  0.00000000E+00
  0.00000000E+00  0.00000000E+00  0.00000000E+00
  0.00000000E+00  0.00000000E+00  0.00000000E+00
  0.00000000E+00  0.00000000E+00  0.00000000E+00
  0.00000000E+00  0.00000000E+00  0.00000000E+00
  0.00000000E+00  0.00000000E+00  0.00000000E+00
  0.00000000E+00  0.00000000E+00  0.00000000E+00
  0.00000000E+00  0.00000000E+00  0.00000000E+00
  0.00000000E+00  0.00000000E+00  0.00000000E+00
  0.00000000E+00  0.00000000E+00  0.00000000E+00
  0.00000000E+00  0.00000000E+00  0.00000000E+00
  0.00000000E+00  0.00000000E+00  0.00000000E+00
  0.00000000E+00  0.00000000E+00  0.00000000E+00
  0.00000000E+00  0.00000000E+00  0.00000000E+00
  0.00000000E+00  0.00000000E+00  0.00000000E+00
  0.00000000E+00  0.00000000E+00  0.00000000E+00
  0.00000000E+00  0.00000000E+00  0.00000000E+00
  0.00000000E+00  0.00000000E+00  0.00000000E+00
  0.00000000E+00  0.00000000E+00  0.00000000E+00
