title                                   
    1.000000000000000     
     9.8802188605864991   -0.0460225073256993    0.0113386059111223
    -0.0462918599307354    9.8085577066977461   -0.0179007522096588
     0.0077720768147355   -0.0119958591763665    6.5101894457737588
   Hf   Mo   W 
    12    12    12
Direct
  0.6612121327903712  0.6699840449202882  0.5105394453692813
  0.4990705566901323  0.8349989636776091  0.2531623731516971
  0.8242335966919951  0.4906913270631393  0.7499947840984290
  0.1700978211418683  0.4979341197525314  0.7395484996211382
  0.1763637596036232  0.1694168286198115  0.2537910375666319
  0.0019686411788759  0.6689430838457037  0.0046599828511530
 -0.0102265289326547 -0.0031372119947918  0.5020071033480978
  0.3469324907664056  0.0052465158824367 -0.0159797223953296
 -0.0033863865248473  0.3242906161030208  0.0112691989039053
  0.1726857732782177  0.1713044786960764  0.7372258713441971
  0.1759754745773423  0.8344462382764553  0.2541273471612757
  0.8238375972717573  0.4955987929872489  0.2564097952098585
 -0.0097830596426989 -0.0055417685114157 -0.0060683188414069
  0.3435830204346234  0.0024274929000995  0.5083089858921961
  0.6624853755633355  0.3240801839914460  0.0019563560110686
  0.6637998495129200  0.6717122560558715  0.0005675621733113
  0.5060577912764644  0.1720729463450855  0.7432034739220690
  0.5056902091224827  0.1728176031334759  0.2497418513310927
 -0.0075373318771057  0.3271903150608741  0.4912329195355517
  0.3361543336331487  0.6629899690975145  0.5012593677138059
  0.3453592288505079  0.3379400543543027 -0.0013257411407759
  0.6576365702406817  0.3253362682879448  0.4993000750030369
  0.6726469532981717  0.0019541804893958  0.5045901881654479
  0.8245840641197125  0.1645600237777430  0.2526223098206956
  0.8287840847722273  0.8347215026138987  0.7584840050099234
  0.1744807792829333  0.5019820814034223  0.2576359831630183
  0.6672302697533452  0.0034090350785765 -0.0042845870094566
 -0.0055602124668960  0.6778683885422736  0.5055271730754440
  0.3344039031412069  0.6657493910071592 -0.0066814002894051
  0.8267013655510170  0.8345124485914193  0.2481823124287841
  0.1718137204638277  0.8298194710237122  0.7448130241326769
  0.3456691293274334  0.3393803163855276  0.4917476792034303
  0.4971684986736561  0.4990861930618553  0.2447807851022559
  0.8232455131404437  0.1643566589165565  0.7515497025869076
  0.4944263300614510  0.4973775890914600  0.7539311530844017
  0.5021946852340224  0.8344796014722714  0.7521694236955921
 
  0.00000000E+00  0.00000000E+00  0.00000000E+00
  0.00000000E+00  0.00000000E+00  0.00000000E+00
  0.00000000E+00  0.00000000E+00  0.00000000E+00
  0.00000000E+00  0.00000000E+00  0.00000000E+00
  0.00000000E+00  0.00000000E+00  0.00000000E+00
  0.00000000E+00  0.00000000E+00  0.00000000E+00
  0.00000000E+00  0.00000000E+00  0.00000000E+00
  0.00000000E+00  0.00000000E+00  0.00000000E+00
  0.00000000E+00  0.00000000E+00  0.00000000E+00
  0.00000000E+00  0.00000000E+00  0.00000000E+00
  0.00000000E+00  0.00000000E+00  0.00000000E+00
  0.00000000E+00  0.00000000E+00  0.00000000E+00
  0.00000000E+00  0.00000000E+00  0.00000000E+00
  0.00000000E+00  0.00000000E+00  0.00000000E+00
  0.00000000E+00  0.00000000E+00  0.00000000E+00
  0.00000000E+00  0.00000000E+00  0.00000000E+00
  0.00000000E+00  0.00000000E+00  0.00000000E+00
  0.00000000E+00  0.00000000E+00  0.00000000E+00
  0.00000000E+00  0.00000000E+00  0.00000000E+00
  0.00000000E+00  0.00000000E+00  0.00000000E+00
  0.00000000E+00  0.00000000E+00  0.00000000E+00
  0.00000000E+00  0.00000000E+00  0.00000000E+00
  0.00000000E+00  0.00000000E+00  0.00000000E+00
  0.00000000E+00  0.00000000E+00  0.00000000E+00
  0.00000000E+00  0.00000000E+00  0.00000000E+00
  0.00000000E+00  0.00000000E+00  0.00000000E+00
  0.00000000E+00  0.00000000E+00  0.00000000E+00
  0.00000000E+00  0.00000000E+00  0.00000000E+00
  0.00000000E+00  0.00000000E+00  0.00000000E+00
  0.00000000E+00  0.00000000E+00  0.00000000E+00
  0.00000000E+00  0.00000000E+00  0.00000000E+00
  0.00000000E+00  0.00000000E+00  0.00000000E+00
  0.00000000E+00  0.00000000E+00  0.00000000E+00
  0.00000000E+00  0.00000000E+00  0.00000000E+00
  0.00000000E+00  0.00000000E+00  0.00000000E+00
  0.00000000E+00  0.00000000E+00  0.00000000E+00
