title                                   
    1.000000000000000     
     9.6580141037886857   -0.0648156458535923   -0.0422264401867519
    -0.0660653444292027    9.5550385202779964    0.2050696902107757
    -0.0270802956772574    0.1357592641549875    6.4341265402471715
   Cr   Nb   V    Zr
     9     9     9     9
Direct
  0.6542675699313975  0.3226535951607941  0.5048365730784081
  0.0001601747808527 -0.0065601273479333 -0.0289472678605233
  0.3718411004862585  0.3370410267342097  0.0265039009514358
  0.6853051131604241  0.0220373500256845  0.4969020444344110
  0.6672541119708278  0.6605495092174610  0.5084692569564693
  0.8102950184567664  0.1534360403960686  0.2813659374116471
  0.8188348317145768  0.1511852258898373  0.7014414211411937
  0.5043139804365098  0.4895440465463654  0.7787424216011978
  0.1897437266596304  0.5068957371219271  0.2347452393544558
  0.6875534000765576  0.0276698978914477 -0.0132257688185199
  0.8362704561054031  0.8423677966993056  0.2435017532428696
  0.0012346982000385  0.6705195599099708  0.0052638561093769
  0.1690476344705846  0.8450059641820263  0.2420247635090654
  0.6608939430567922  0.6658796753698796 -0.0116496297802505
  0.1637151370702847  0.8458697203501484  0.7561851056910996
  0.3356188099331646  0.0270980276944681 -0.0135125915035502
  0.8091682339101967  0.4969373155600136  0.7368114788515610
  0.1723566387427965  0.1669492307074837  0.2318967076031290
  0.6486147875276028  0.3319577508702676 -0.0201291691735089
  0.8361749522788372  0.8415100995481878  0.7373492965110992
  0.1528982814729336  0.1458136950092549  0.7453875222710566
  0.5063125416754835  0.4978689141459213  0.2537620988747476
  0.5073594590083008  0.1839791624220027  0.2490918504337803
  0.5180797495427242  0.1783495624738053  0.7377959869962301
 -0.0078092115774702  0.0002006059181560  0.4915947213242157
  0.3265351754409121  0.0197028263379523  0.4940339047531758
  0.3362402138107868  0.6539147461213968  0.0356960004762083
  0.8074954155596173  0.4939686922710282  0.2533402235633180
  0.0031415997114714  0.3265828652414607  0.4917429419526096
  0.1764211569983143  0.4674004719107788  0.8220261754240166
  0.5079651327002512  0.8465979273306952  0.7437700982440061
 -0.0448737172031259  0.2889402101053329 -0.0036548126088059
  0.5092345830327573  0.8470077533589532  0.2570749610282277
  0.0026236655276299  0.6651104864047938  0.5051214323555835
  0.3393749017526498  0.3321356809571661  0.5113875260711325
  0.3363367335772575  0.6538789574636901  0.5132540395294320
 
  0.00000000E+00  0.00000000E+00  0.00000000E+00
  0.00000000E+00  0.00000000E+00  0.00000000E+00
  0.00000000E+00  0.00000000E+00  0.00000000E+00
  0.00000000E+00  0.00000000E+00  0.00000000E+00
  0.00000000E+00  0.00000000E+00  0.00000000E+00
  0.00000000E+00  0.00000000E+00  0.00000000E+00
  0.00000000E+00  0.00000000E+00  0.00000000E+00
  0.00000000E+00  0.00000000E+00  0.00000000E+00
  0.00000000E+00  0.00000000E+00  0.00000000E+00
  0.00000000E+00  0.00000000E+00  0.00000000E+00
  0.00000000E+00  0.00000000E+00  0.00000000E+00
  0.00000000E+00  0.00000000E+00  0.00000000E+00
  0.00000000E+00  0.00000000E+00  0.00000000E+00
  0.00000000E+00  0.00000000E+00  0.00000000E+00
  0.00000000E+00  0.00000000E+00  0.00000000E+00
  0.00000000E+00  0.00000000E+00  0.00000000E+00
  0.00000000E+00  0.00000000E+00  0.00000000E+00
  0.00000000E+00  0.00000000E+00  0.00000000E+00
  0.00000000E+00  0.00000000E+00  0.00000000E+00
  0.00000000E+00  0.00000000E+00  0.00000000E+00
  0.00000000E+00  0.00000000E+00  0.00000000E+00
  0.00000000E+00  0.00000000E+00  0.00000000E+00
  0.00000000E+00  0.00000000E+00  0.00000000E+00
  0.00000000E+00  0.00000000E+00  0.00000000E+00
  0.00000000E+00  0.00000000E+00  0.00000000E+00
  0.00000000E+00  0.00000000E+00  0.00000000E+00
  0.00000000E+00  0.00000000E+00  0.00000000E+00
  0.00000000E+00  0.00000000E+00  0.00000000E+00
  0.00000000E+00  0.00000000E+00  0.00000000E+00
  0.00000000E+00  0.00000000E+00  0.00000000E+00
  0.00000000E+00  0.00000000E+00  0.00000000E+00
  0.00000000E+00  0.00000000E+00  0.00000000E+00
  0.00000000E+00  0.00000000E+00  0.00000000E+00
  0.00000000E+00  0.00000000E+00  0.00000000E+00
  0.00000000E+00  0.00000000E+00  0.00000000E+00
  0.00000000E+00  0.00000000E+00  0.00000000E+00
